 vasp.6.5.1 10Mar25 (build Apr 08 2025 20:07:02) complex

 executed on             LinuxIFC date 2025.06.07  20:24:49

 INCAR:
   SYSTEM = CrCl3 static
   ENCUT = 400
   EDIFF = 1E-5
   PREC = Normal
   ISMEAR = 0
   SIGMA = 0.1
   ISPIN = 2
   MAGMOM = 2*3.0 6*0.6
   LCHARG = .TRUE.
   LWAVE = .TRUE.
   IBRION = -1
   NSW = 0
   NCORES = 4

 POTCAR:    PAW_PBE Cr 06Sep2000
 POTCAR:    PAW_PBE Cl 06Sep2000
|           W    W    AA    RRRRR   N    N  II  N    N   GGGG   !!!           |
|           W    W   A  A   R    R  NN   N  II  NN   N  G    G  !!!           |
|           W    W  A    A  R    R  N N  N  II  N N  N  G       !!!           |
|           W WW W  AAAAAA  RRRRR   N  N N  II  N  N N  G  GGG   !            |
|           WW  WW  A    A  R   R   N   NN  II  N   NN  G    G                |
|           W    W  A    A  R    R  N    N  II  N    N   GGGG   !!!           |
|     For optimal performance we recommend to set                             |
|       NCORE = 2 up to number-of-cores-per-socket                            |
|     This setting can greatly improve the performance of VASP for DFT.       |
|     The default, NCORE=1 might be grossly inefficient on modern             |
|     multi-core architectures or massively parallel machines. Do your        |
|     Unfortunately you need to use the default for GW and RPA                |
|     calculations (for HF NCORE is supported but not extensively tested      |
|     yet).                                                                   |

   TITEL  = PAW_PBE Cr 06Sep2000
   POMASS =   51.996; ZVAL   =    6.000    mass and valenz
   ENMAX  =  227.080; ENMIN  =  170.310 eV

   TITEL  = PAW_PBE Cl 06Sep2000
   POMASS =   35.453; ZVAL   =    7.000    mass and valenz
   ENMAX  =  262.472; ENMIN  =  196.854 eV

  PAW_PBE Cr 06Sep2000                  :
  PAW_PBE Cl 06Sep2000                  :

 POSCAR:
|           W    W    AA    RRRRR   N    N  II  N    N   GGGG   !!!           |
|           W    W   A  A   R    R  NN   N  II  NN   N  G    G  !!!           |
|           W    W  A    A  R    R  N N  N  II  N N  N  G       !!!           |
|           W WW W  AAAAAA  RRRRR   N  N N  II  N  N N  G  GGG   !            |
|           WW  WW  A    A  R   R   N   NN  II  N   NN  G    G                |
|           W    W  A    A  R    R  N    N  II  N    N   GGGG   !!!           |
|     Inconsistent Bravais lattice types found for crystalline and            |
|     reciprocal lattice:                                                     |
|        Crystalline: base-centered monoclinic                                |
|        Reciprocal : triclinic                                               |
|                    (instead of base-centered monoclinic)                    |
|     In most cases this is due to inaccuracies in the specification of       |
|     the crytalline lattice vectors.                                         |
|     Suggested SOLUTIONS:                                                    |
|      ) Refine the lattice parameters of your structure,                     |
|      ) and/or try changing SYMPREC.                                         |

  positions in direct lattice
  velocities in cartesian coordinates

 exchange-correlation table for PE
   RHO(1)=    0.500       N(1)  =     2000
   RHO(2)=  100.500       N(2)  =     4000

 ion  position               nearest neighbor table
   1  0.667  0.333  0.500-   3 2.37   8 2.37   5 2.37   7 2.37   4 2.37   6 2.37
   2  1.000  0.000  0.500-   7 2.37   5 2.37   3 2.37   8 2.37   4 2.37   6 2.37
   3  0.333  0.029  0.558-   1 2.37   2 2.37
   4  0.971  0.305  0.558-   2 2.37   1 2.37
   5  0.696  0.666  0.558-   2 2.37   1 2.37
   6  0.695  0.029  0.442-   2 2.37   1 2.37
   7  0.334  0.304  0.442-   2 2.37   1 2.37
   8  0.971  0.667  0.442-   1 2.37   2 2.37

  LATTYP: Found a base centered monoclinic cell.
 ALAT       =    46.0522173584
 B/A-ratio  =     0.2315140720
 C/A-ratio  =     0.4954947411
 COS(beta)  =    -0.9910458493

  Lattice vectors:

 A1 = (  -6.1563980000,  -0.0015340000, -22.8192420000)
 A2 = (   3.0771110000,  -5.3321000000, -22.8193060000)
 A3 = (   0.0023100000,   0.0042790000,  22.8186310000)

Analysis of symmetry for initial positions (statically):
 Subroutine PRICEL returns:
 Original cell was already a primitive cell.

 Routine SETGRP: Setting up the symmetry group for a
 base centered monoclinic supercell.

 Subroutine GETGRP returns: Found  1 space group operations
 (whereof  1 operations were pure point group operations)
 out of a pool of  4 trial point group operations.

The static configuration has the point symmetry C_1 .

Analysis of symmetry for dynamics (positions and initial velocities):
 Subroutine PRICEL returns:
 Original cell was already a primitive cell.

[...]

The dynamic configuration has the point symmetry C_1 .

Analysis of structural, dynamic, and magnetic symmetry:
 Subroutine PRICEL returns:
 Original cell was already a primitive cell.

 Routine SETGRP: Setting up the symmetry group for a
 base centered monoclinic supercell.

 Subroutine GETGRP returns: Found  1 space group operations
 (whereof  1 operations were pure point group operations)
 out of a pool of  4 trial point group operations.

The overall configuration has the point symmetry C_1 .

 Subroutine INISYM returns: Found  1 space group operations
 (whereof  1 operations are pure point group operations),
 and found     1 'primitive' translations

                                     Primitive cell

  volume of cell :     747.9816

  direct lattice vectors                    reciprocal lattice vectors
     6.154088000 -0.002745000  0.000611000     0.162535521  0.093943719 -0.000034071
    -3.079421000  5.327821000  0.000675000     0.000083745  0.187742402 -0.000035214
     0.002310000  0.004279000 22.818631000    -0.000004355 -0.000008069  0.043823840

  length of vectors
     6.154088643  6.153739575 22.818631518     0.187731774  0.187742424  0.043823841

  position of ions in fractional coordinates (direct lattice)
     0.666677028  0.333310611  0.500000695
     0.999989260  0.000021870  0.500000530
     0.333113150  0.029071810  0.557998187
     0.971390735  0.304732769  0.557849020
     0.695759454  0.666447055  0.558003728
     0.695276901  0.028595863  0.442150097
     0.333556670  0.304266304  0.442000817
     0.970904157  0.666881836  0.441995401

  ion indices of the primitive-cell ions
   primitive index   ion index
                 1           1
                 2           2
                 3           3
                 4           4
                 5           5
                 6           6
                 7           7
                 8           8

 KPOINTS: Automatic mesh

Automatic generation of k-mesh.
 Grid dimensions read from file:
 generate k-points for:    6    6    4

 Generating k-lattice:

  Cartesian coordinates                     Fractional coordinates (reciprocal lattice)
     0.027089253  0.015657286 -0.000005678     0.166666667 -0.000000000  0.000000000
     0.000013958  0.031290400 -0.000005869     0.000000000  0.166666667  0.000000000
    -0.000001089 -0.000002017  0.010955960     0.000000000 -0.000000000  0.250000000

  Length of vectors
     0.031288629  0.031290404  0.010955960

  Shift w.r.t. Gamma in fractional coordinates (k-lattice)
     0.500000000  0.500000000  0.500000000

 Subroutine IBZKPT returns following result:

 Found     72 irreducible k-points:

 Following reciprocal coordinates:
            Coordinates               Weight
  0.083333  0.083333  0.125000      2.000000
  0.250000  0.083333  0.125000      2.000000
  0.416667  0.083333  0.125000      2.000000
 -0.416667  0.083333  0.125000      2.000000
 -0.250000  0.083333  0.125000      2.000000
 -0.083333  0.083333  0.125000      2.000000
  0.083333  0.250000  0.125000      2.000000
  0.250000  0.250000  0.125000      2.000000
  0.416667  0.250000  0.125000      2.000000
 -0.416667  0.250000  0.125000      2.000000
 -0.250000  0.250000  0.125000      2.000000
 -0.083333  0.250000  0.125000      2.000000
  0.083333  0.416667  0.125000      2.000000
  0.250000  0.416667  0.125000      2.000000
  0.416667  0.416667  0.125000      2.000000
 -0.416667  0.416667  0.125000      2.000000
 -0.250000  0.416667  0.125000      2.000000
 -0.083333  0.416667  0.125000      2.000000
  0.083333 -0.416667  0.125000      2.000000
  0.250000 -0.416667  0.125000      2.000000
  0.416667 -0.416667  0.125000      2.000000
 -0.416667 -0.416667  0.125000      2.000000
 -0.250000 -0.416667  0.125000      2.000000
 -0.083333 -0.416667  0.125000      2.000000
  0.083333 -0.250000  0.125000      2.000000
  0.250000 -0.250000  0.125000      2.000000
  0.416667 -0.250000  0.125000      2.000000
 -0.416667 -0.250000  0.125000      2.000000
 -0.250000 -0.250000  0.125000      2.000000
 -0.083333 -0.250000  0.125000      2.000000
  0.083333 -0.083333  0.125000      2.000000
  0.250000 -0.083333  0.125000      2.000000
  0.416667 -0.083333  0.125000      2.000000
 -0.416667 -0.083333  0.125000      2.000000
 -0.250000 -0.083333  0.125000      2.000000
 -0.083333 -0.083333  0.125000      2.000000
  0.083333  0.083333  0.375000      2.000000
  0.250000  0.083333  0.375000      2.000000
  0.416667  0.083333  0.375000      2.000000
 -0.416667  0.083333  0.375000      2.000000
 -0.250000  0.083333  0.375000      2.000000
 -0.083333  0.083333  0.375000      2.000000
  0.083333  0.250000  0.375000      2.000000
  0.250000  0.250000  0.375000      2.000000
  0.416667  0.250000  0.375000      2.000000
 -0.416667  0.250000  0.375000      2.000000
 -0.250000  0.250000  0.375000      2.000000
 -0.083333  0.250000  0.375000      2.000000
  0.083333  0.416667  0.375000      2.000000
  0.250000  0.416667  0.375000      2.000000
  0.416667  0.416667  0.375000      2.000000
 -0.416667  0.416667  0.375000      2.000000
 -0.250000  0.416667  0.375000      2.000000
 -0.083333  0.416667  0.375000      2.000000
  0.083333 -0.416667  0.375000      2.000000
  0.250000 -0.416667  0.375000      2.000000
  0.416667 -0.416667  0.375000      2.000000
 -0.416667 -0.416667  0.375000      2.000000
 -0.250000 -0.416667  0.375000      2.000000
 -0.083333 -0.416667  0.375000      2.000000
  0.083333 -0.250000  0.375000      2.000000
  0.250000 -0.250000  0.375000      2.000000
  0.416667 -0.250000  0.375000      2.000000
 -0.416667 -0.250000  0.375000      2.000000
 -0.250000 -0.250000  0.375000      2.000000
 -0.083333 -0.250000  0.375000      2.000000
  0.083333 -0.083333  0.375000      2.000000
  0.250000 -0.083333  0.375000      2.000000
  0.416667 -0.083333  0.375000      2.000000
 -0.416667 -0.083333  0.375000      2.000000
 -0.250000 -0.083333  0.375000      2.000000
 -0.083333 -0.083333  0.375000      2.000000

 Following cartesian coordinates:
            Coordinates               Weight
  0.013551  0.023473  0.005472      2.000000
  0.040640  0.039130  0.005467      2.000000
  0.067730  0.054787  0.005461      2.000000
 -0.067717 -0.023499  0.005489      2.000000
 -0.040627 -0.007842  0.005484      2.000000
 -0.013538  0.007816  0.005478      2.000000
  0.013565  0.054763  0.005466      2.000000
[...]
 k-point    61 :   0.0833-0.2500 0.3750  plane waves:   13558
 k-point    62 :   0.2500-0.2500 0.3750  plane waves:   13549
 k-point    63 :   0.4167-0.2500 0.3750  plane waves:   13600
 k-point    64 :  -0.4167-0.2500 0.3750  plane waves:   13635
 k-point    65 :  -0.2500-0.2500 0.3750  plane waves:   13619
 k-point    66 :  -0.0833-0.2500 0.3750  plane waves:   13584
 k-point    67 :   0.0833-0.0833 0.3750  plane waves:   13549
 k-point    68 :   0.2500-0.0833 0.3750  plane waves:   13553
 k-point    69 :   0.4167-0.0833 0.3750  plane waves:   13590
 k-point    70 :  -0.4167-0.0833 0.3750  plane waves:   13595
 k-point    71 :  -0.2500-0.0833 0.3750  plane waves:   13586
 k-point    72 :  -0.0833-0.0833 0.3750  plane waves:   13545

 maximum and minimum number of plane-waves per node :     13635    13542

 maximum number of plane-waves:     13635
 maximum index in each direction:
   IXMAX=   10   IYMAX=   10   IZMAX=   37
   IXMIN=  -10   IYMIN=  -10   IZMIN=  -37

 serial   3D FFT for wavefunctions
 parallel 3D FFT for charge:
    minimum data exchange during FFTs selected (reduces bandwidth)

 Broyden mixing: mesh for mixing (old mesh)
   NGX = 21   NGY = 21   NGZ = 75
  (NGX  = 60   NGY  = 60   NGZ  =224)
  gives a total of  33075 points

 initial charge density was supplied:
 charge density of overlapping atoms calculated
 number of electron      54.0000000 magnetization       9.6000000
 keeping initial charge density in first step

 Maximum index for augmentation-charges          389 (set IRDMAX)

 First call to EWALD:  gamma=   0.195
 Maximum number of real-space cells   4x   4x   1
 Maximum number of reciprocal cells   2x   2x   6

--------------------------------------- Ionic step        1  -------------------------------------------

--------------------------------------- Iteration      1(   1)  ---------------------------------------

 eigenvalue-minimisations  : 18432
 total energy-change (2. order) : 0.4008390E+03  (-0.1498381E+04)
 number of electron      54.0000000 magnetization       9.6000000
 augmentation part       54.0000000 magnetization       9.6000000

 Free energy of the ion-electron system (eV)
  alpha Z        PSCENC =        23.01523305
  Ewald energy   TEWEN  =      7673.06934580
  -Hartree energ DENC   =    -10328.30805650
  -exchange      EXHF   =         0.00000000
  -V(xc)+E(xc)   XCENC  =        82.57744203
  PAW double counting   =      2504.62862977    -2465.96035111
  entropy T*S    EENTRO =        -0.04367478
  eigenvalues    EBANDS =      -100.20963138
  atomic energy  EATOM  =      3012.07006103
  Solvation  Ediel_sol  =         0.00000000
  free energy    TOTEN  =       400.83899791 eV

  energy without entropy =      400.88267269  energy(sigma->0) =      400.86083530

[...]

 eigenvalue-minimisations  : 23200
 total energy-change (2. order) :-0.3791880E+03  (-0.3406679E+03)
 number of electron      54.0000000 magnetization       9.6000000
 augmentation part       54.0000000 magnetization       9.6000000

[...]

 Broyden mixing:
  rms(total) = 0.19980E+01    rms(broyden)= 0.19978E+01
  rms(prec ) = 0.20920E+01
  weight for this iteration     100.00

[...]

 eigenvalues of (default mixing * dielectric matrix)
  average eigenvalue GAMMA=   0.3369
  0.3369

[...]

 eigenvalue-minimisations  : 27488
 total energy-change (2. order) : 0.1796847E+01  (-0.2411475E+01)
 number of electron      53.9999941 magnetization       8.6148959
 augmentation part       -0.7779167 magnetization       6.6267655

[...]

 Broyden mixing:
  rms(total) = 0.84515E-04    rms(broyden)= 0.84431E-04
  rms(prec ) = 0.97902E-04
  weight for this iteration     100.00

 eigenvalues of (default mixing * dielectric matrix)
  average eigenvalue GAMMA=   1.8906
  8.7680  7.3071  3.9335  2.5040  2.5040  1.9649  1.6270  1.6270  1.2190  0.9749
  0.9081  0.9081  0.4121  0.7511  0.7244  0.6898  0.4871  0.6257  0.5976  0.5976
  0.5725

[...]

--------------------------------------- Iteration      1(  27)  ---------------------------------------

 eigenvalue-minimisations  : 22432
 total energy-change (2. order) :-0.6340600E-05  (-0.1316377E-07)
 number of electron      53.9999941 magnetization       6.0000196
 augmentation part       -0.5275879 magnetization       4.1362196

 Free energy of the ion-electron system (eV)
  alpha Z        PSCENC =        23.01523305
  Ewald energy   TEWEN  =      7673.06934580
  -Hartree energ DENC   =    -10334.18571615
  -exchange      EXHF   =         0.00000000
  -V(xc)+E(xc)   XCENC  =        85.97737580
  PAW double counting   =      3633.79614341    -3596.58316889
  entropy T*S    EENTRO =        -0.00000000
  eigenvalues    EBANDS =      -536.03683963
  atomic energy  EATOM  =      3012.07006103
  Solvation  Ediel_sol  =         0.00000000
  free energy    TOTEN  =       -38.87756557 eV

  energy without entropy =      -38.87756557  energy(sigma->0) =      -38.87756557

 average (electrostatic) potential at core
  the test charge radii are     1.1394  0.9406
  (the norm of the test charge is              1.0000)
       1 -53.2836       2 -53.2836       3 -99.6766       4 -99.6752       5 -99.6766
       6 -99.6751       7 -99.6765       8 -99.6764

 E-fermi :  -4.2954     XC(G=0):  -2.5597     alpha+bet : -2.0165

 val. band max:       -4.7440845657   @ k =  -0.4167   0.4167   0.3750
 cond. band min:      -3.2226993871   @ k =   0.2500   0.4167   0.3750
 fundamental gap:      1.5213851785
 Fermi energy:        -4.2954349926

 spin component 1

 k-point     1 :       0.0833    0.0833    0.1250
  band No.  band energies     occupation
      1     -19.8892      1.00000
      2     -19.0862      1.00000
      3     -19.0771      1.00000
      4     -19.0417      1.00000
      5     -18.8915      1.00000
      6     -18.8902      1.00000
      7      -9.6670      1.00000
      8      -9.1788      1.00000
      9      -8.7754      1.00000
     10      -8.7340      1.00000
     11      -8.7034      1.00000
     12      -8.6626      1.00000
     13      -8.3874      1.00000
     14      -8.3710      1.00000
     15      -8.2908      1.00000
     16      -7.5598      1.00000
     17      -7.3870      1.00000
     18      -7.3814      1.00000
     19      -6.7495      1.00000
     20      -6.5731      1.00000
     21      -6.4951      1.00000
     22      -6.3614      1.00000
     23      -6.2455      1.00000
     24      -6.2134      1.00000
     25      -5.5110      1.00000
     26      -5.2263      1.00000
     27      -5.2113      1.00000
     28      -5.0488      1.00000
     29      -4.9271      1.00000
     30      -4.9149      1.00000
     31      -3.1725      0.00000
     32      -3.1606      0.00000
     33      -2.9644      0.00000
     34      -2.8968      0.00000
     35       1.1254      0.00000
     36       1.6879      0.00000
     37       2.1497      0.00000
     38       2.7016      0.00000
     39       2.8555      0.00000
     40       2.9738      0.00000
     41       3.1688      0.00000
     42       3.9008      0.00000
     43       4.1148      0.00000
     44       4.1238      0.00000
     45       4.2201      0.00000
     46       4.6333      0.00000
     47       4.8069      0.00000
     48       4.9132      0.00000
     49       4.9653      0.00000
     50       5.3105      0.00000
     51       5.3568      0.00000
     52       5.4742      0.00000
     53       5.6552      0.00000
     54       5.7044      0.00000
     55       5.8882      0.00000
     56       5.9342      0.00000
     57       6.0529      0.00000
     58       6.1538      0.00000
     59       6.2317      0.00000
     60       6.2388      0.00000
     61       6.3545      0.00000
     62       6.4538      0.00000
     63       6.5388      0.00000
     64       6.7120      0.00000

[...]

 k-point    72 :      -0.0833   -0.0833    0.3750
  band No.  band energies     occupation
      1     -19.8892      1.00000
      2     -19.0862      1.00000
      3     -19.0771      1.00000
      4     -19.0417      1.00000
      5     -18.8915      1.00000
      6     -18.8902      1.00000
      7      -9.6670      1.00000
      8      -9.1788      1.00000
      9      -8.7754      1.00000
     10      -8.7340      1.00000
     11      -8.7034      1.00000
     12      -8.6626      1.00000
     13      -8.3874      1.00000
     14      -8.3710      1.00000
     15      -8.2908      1.00000
     16      -7.5598      1.00000
     17      -7.3870      1.00000
     18      -7.3814      1.00000
     19      -6.7495      1.00000
     20      -6.5731      1.00000
     21      -6.4951      1.00000
     22      -6.3614      1.00000
     23      -6.2455      1.00000
     24      -6.2134      1.00000
     25      -5.5110      1.00000
     26      -5.2263      1.00000
     27      -5.2113      1.00000
     28      -5.0488      1.00000
     29      -4.9271      1.00000
     30      -4.9149      1.00000
     31      -3.1725      0.00000
     32      -3.1606      0.00000
     33      -2.9644      0.00000
     34      -2.8968      0.00000
     35       1.1265      0.00000
     36       1.6723      0.00000
     37       2.2351      0.00000
     38       2.5347      0.00000
     39       2.8596      0.00000
     40       2.9738      0.00000
     41       3.3717      0.00000
     42       3.8909      0.00000
     43       3.9314      0.00000
     44       4.1238      0.00000
     45       4.2072      0.00000
     46       4.6333      0.00000
     47       4.8002      0.00000
     48       4.9383      0.00000
     49       5.0981      0.00000
     50       5.3130      0.00000
     51       5.4108      0.00000
     52       5.4749      0.00000
     53       5.6508      0.00000
     54       5.7051      0.00000
     55       5.8873      0.00000
     56       5.9562      0.00000
     57       6.0541      0.00000
     58       6.0943      0.00000
     59       6.1128      0.00000
     60       6.1949      0.00000
     61       6.2979      0.00000
     62       6.5002      0.00000
     63       6.5398      0.00000
     64       6.7329      0.00000
 Fermi energy:        -4.2954349926

 spin component 2

[...]

 k-point    72 :      -0.0833   -0.0833    0.3750
  band No.  band energies     occupation
      1     -19.8823      1.00000
      2     -19.1156      1.00000
      3     -19.1040      1.00000
      4     -19.0710      1.00000
      5     -18.9172      1.00000
      6     -18.9163      1.00000
      7      -9.4326      1.00000
      8      -8.9102      1.00000
      9      -8.5689      1.00000
     10      -8.5029      1.00000
     11      -8.4518      1.00000
     12      -8.4259      1.00000
     13      -8.1213      1.00000
     14      -7.9736      1.00000
     15      -7.9098      1.00000
     16      -7.2274      1.00000
     17      -7.1233      1.00000
     18      -7.0902      1.00000
     19      -6.6494      1.00000
     20      -6.4760      1.00000
     21      -6.2686      1.00000
     22      -6.2530      1.00000
     23      -6.1554      1.00000
     24      -6.1072      1.00000
     25      -2.5158      0.00000
     26      -2.4157      0.00000
     27      -2.3219      0.00000
     28      -2.3214      0.00000
     29      -2.1923      0.00000
     30      -2.1655      0.00000
     31      -1.6167      0.00000
     32      -1.6114      0.00000
     33      -1.5160      0.00000
     34      -1.4632      0.00000
     35       1.2539      0.00000
     36       1.7031      0.00000
     37       2.2407      0.00000
     38       2.6464      0.00000
     39       3.1175      0.00000
     40       3.5075      0.00000
     41       3.5975      0.00000
     42       3.9515      0.00000
     43       4.1699      0.00000
     44       4.3106      0.00000
     45       4.4524      0.00000
     46       4.8803      0.00000
     47       4.9325      0.00000
     48       5.1129      0.00000
     49       5.2411      0.00000
     50       5.4042      0.00000
     51       5.5658      0.00000
     52       5.6733      0.00000
     53       5.8239      0.00000
     54       5.8536      0.00000
     55       6.0626      0.00000
     56       6.0762      0.00000
     57       6.0857      0.00000
     58       6.1765      0.00000
     59       6.2006      0.00000
     60       6.3340      0.00000
     61       6.5083      0.00000
     62       6.6321      0.00000
     63       6.6726      0.00000
     64       6.7919      0.00000

 soft charge-density along one line, spin component           1
         0         1         2         3         4         5         6         7         8         9
 total charge-density along one line

 soft charge-density along one line, spin component           2
         0         1         2         3         4         5         6         7         8         9
 total charge-density along one line

------------------------ aborting loop because EDIFF is reached ----------------------------------------

  FORCE on cell =-STRESS in cart. coord.  units (eV):
  Direction    XX          YY          ZZ          XY          YZ          ZX
  Alpha Z    23.01523    23.01523    23.01523
  Ewald    9327.73960  9328.27386-10982.94561     0.44962     3.92379     2.13125
  Hartree  9931.57445  9931.94652 -9529.35320     0.30303     3.72171     2.02001
  E(xc)    -209.09778  -209.09753  -209.36096     0.00016     0.00074     0.00045
  Local  -20281.28216-20282.18482 19485.90070    -0.74620    -7.63518    -4.14588
  n-local   476.63784   476.63885   475.39834     0.00155    -0.00562    -0.00336
  augment   -58.77855   -58.77927   -58.92941    -0.00064     0.00130     0.00073
  Kinetic   788.39052   788.40811   795.95371     0.00907    -0.01237    -0.00576
  Fock        0.00000     0.00000     0.00000     0.00000     0.00000     0.00000
  Total      -1.80085    -1.77906    -0.32121     0.01659    -0.00563    -0.00256
  in kB      -3.85741    -3.81075    -0.68804     0.03554    -0.01206    -0.00549

 VOLUME and BASIS-vectors are now :
  energy-cutoff  :      400.00
  volume of cell :      747.98
      direct lattice vectors                 reciprocal lattice vectors
     6.154088000 -0.002745000  0.000611000     0.162535521  0.093943719 -0.000034071
    -3.079421000  5.327821000  0.000675000     0.000083745  0.187742402 -0.000035214
     0.002310000  0.004279000 22.818631000    -0.000004355 -0.000008069  0.043823840

  length of vectors
     6.154088643  6.153739575 22.818631518     0.187731774  0.187742424  0.043823841

 FORCES acting on ions
    electron-ion (+dipol)            ewald-force                    non-local-force                 convergence-correction
   -.188E+00 0.119E+00 0.956E-03   0.191E+00 -.121E+00 -.113E-02   0.191E-03 0.338E-04 -.320E-03   0.328E-05 -.111E-05 -.497E-06
   0.184E+00 -.117E+00 -.625E-02   -.186E+00 0.118E+00 0.588E-02   0.410E-05 -.145E-03 0.629E-04   -.408E-05 0.107E-05 -.141E-06
   -.363E+02 0.629E+02 -.482E+03   0.373E+02 -.646E+02 0.485E+03   -.101E+01 0.176E+01 -.302E+01   -.857E-04 -.889E-04 -.814E-03
   -.363E+02 -.628E+02 -.481E+03   0.373E+02 0.646E+02 0.484E+03   -.103E+01 -.178E+01 -.301E+01   0.116E-03 -.378E-04 -.829E-03
   0.726E+02 -.342E-01 -.482E+03   -.746E+02 0.306E-01 0.485E+03   0.203E+01 0.513E-02 -.302E+01   -.349E-04 0.123E-03 -.818E-03
   0.363E+02 0.628E+02 0.481E+03   -.373E+02 -.646E+02 -.484E+03   0.103E+01 0.178E+01 0.301E+01   0.929E-04 -.831E-04 0.832E-03
   0.363E+02 -.629E+02 0.482E+03   -.373E+02 0.646E+02 -.485E+03   0.101E+01 -.176E+01 0.302E+01   -.121E-03 -.304E-04 0.816E-03
   -.726E+02 0.302E-01 0.482E+03   0.746E+02 -.268E-01 -.485E+03   -.203E+01 -.507E-02 0.302E+01   0.300E-04 0.117E-03 0.816E-03
   -.178E-03 0.110E-03 -.448E-03   -.142E-13 0.731E-14 0.000E+00   0.180E-03 -.110E-03 0.440E-03   -.339E-05 -.199E-06 0.127E-05

 POSITION                                       TOTAL-FORCE (eV/Angst)
      3.07754      1.77613     11.40996         0.002670     -0.001307     -0.000490
      6.15511     -0.00049     11.40994        -0.002586      0.001264     -0.000313
      1.96177      0.15636     12.73298        -0.017411      0.033203     -0.029150
      5.04091      1.62328     12.73015        -0.021253     -0.037046     -0.025112
      2.23078      3.55119     12.73376         0.037630      0.001712     -0.029571
      4.19176      0.15234     10.08970         0.021197      0.037209      0.025374
      1.11679      1.62205     10.08626         0.017410     -0.033452      0.029459
      3.92244      3.55225     10.08677        -0.037657     -0.001583      0.029804
    total drift:                               -0.000001     -0.000000     -0.000007

  FREE ENERGIE OF THE ION-ELECTRON SYSTEM (eV)
  free  energy   TOTEN  =       -38.87756557 eV

  energy  without entropy=      -38.87756557  energy(sigma->0) =      -38.87756557

 writing wavefunctions