 vasp.6.5.1 10Mar25 (build Apr 08 2025 20:07:02) complex

 executed on             LinuxIFC date 2025.06.11  20:40:33

 INCAR:
   SYSTEM = CrCl3 Band Structure
   ENCUT = 400
   EDIFF = 1E-5
   PREC = Normal
   ISMEAR = 0
   SIGMA = 0.1
   ISPIN = 2
   MAGMOM = 2*3.0 6*0.6
   LCHARG = .FALSE.
   LWAVE = .FALSE.
   ICHARG = 11
   LORBIT = 11

 POTCAR:    PAW_PBE Cr 06Sep2000
 POTCAR:    PAW_PBE Cl 06Sep2000
|           W    W    AA    RRRRR   N    N  II  N    N   GGGG   !!!           |
|           W    W   A  A   R    R  NN   N  II  NN   N  G    G  !!!           |
|           W    W  A    A  R    R  N N  N  II  N N  N  G       !!!           |
|           W WW W  AAAAAA  RRRRR   N  N N  II  N  N N  G  GGG   !            |
|           WW  WW  A    A  R   R   N   NN  II  N   NN  G    G                |
|           W    W  A    A  R    R  N    N  II  N    N   GGGG   !!!           |
|     For optimal performance we recommend to set                             |
|       NCORE = 2 up to number-of-cores-per-socket                            |
|     This setting can greatly improve the performance of VASP for DFT.       |
|     The default, NCORE=1 might be grossly inefficient on modern             |
|     multi-core architectures or massively parallel machines. Do your        |
|     Unfortunately you need to use the default for GW and RPA                |
|     calculations (for HF NCORE is supported but not extensively tested      |
|     yet).                                                                   |

   TITEL  = PAW_PBE Cr 06Sep2000
   POMASS =   51.996; ZVAL   =    6.000    mass and valenz
   ENMAX  =  227.080; ENMIN  =  170.310 eV

   TITEL  = PAW_PBE Cl 06Sep2000
   POMASS =   35.453; ZVAL   =    7.000    mass and valenz
   ENMAX  =  262.472; ENMIN  =  196.854 eV

  PAW_PBE Cr 06Sep2000                  :
  PAW_PBE Cl 06Sep2000                  :

 POSCAR:
|           W    W    AA    RRRRR   N    N  II  N    N   GGGG   !!!           |
|           W    W   A  A   R    R  NN   N  II  NN   N  G    G  !!!           |
|           W    W  A    A  R    R  N N  N  II  N N  N  G       !!!           |
|           W WW W  AAAAAA  RRRRR   N  N N  II  N  N N  G  GGG   !            |
|           WW  WW  A    A  R   R   N   NN  II  N   NN  G    G                |
|           W    W  A    A  R    R  N    N  II  N    N   GGGG   !!!           |
|     Inconsistent Bravais lattice types found for crystalline and            |
|     reciprocal lattice:                                                     |
|        Crystalline: base-centered monoclinic                                |
|        Reciprocal : triclinic                                               |
|                    (instead of base-centered monoclinic)                    |
|     In most cases this is due to inaccuracies in the specification of       |
|     the crytalline lattice vectors.                                         |
|     Suggested SOLUTIONS:                                                    |
|      ) Refine the lattice parameters of your structure,                     |
|      ) and/or try changing SYMPREC.                                         |

  positions in direct lattice
  velocities in cartesian coordinates

 exchange-correlation table for PE
   RHO(1)=    0.500       N(1)  =     2000
   RHO(2)=  100.500       N(2)  =     4000

 ion  position               nearest neighbor table
   1  0.667  0.333  0.500-   3 2.37   8 2.37   5 2.37   7 2.37   4 2.37   6 2.37
   2  1.000  0.000  0.500-   7 2.37   5 2.37   3 2.37   8 2.37   4 2.37   6 2.37
   3  0.333  0.029  0.558-   1 2.37   2 2.37
   4  0.971  0.305  0.558-   2 2.37   1 2.37
   5  0.696  0.666  0.558-   2 2.37   1 2.37
   6  0.695  0.029  0.442-   2 2.37   1 2.37
   7  0.334  0.304  0.442-   2 2.37   1 2.37
   8  0.971  0.667  0.442-   1 2.37   2 2.37

  LATTYP: Found a base centered monoclinic cell.
 ALAT       =    46.0522173584
 B/A-ratio  =     0.2315140720
 C/A-ratio  =     0.4954947411
 COS(beta)  =    -0.9910458493

  Lattice vectors:

 A1 = (  -6.1563980000,  -0.0015340000, -22.8192420000)
 A2 = (   3.0771110000,  -5.3321000000, -22.8193060000)
 A3 = (   0.0023100000,   0.0042790000,  22.8186310000)

Analysis of symmetry for initial positions (statically):
 Subroutine PRICEL returns:
 Original cell was already a primitive cell.

 Routine SETGRP: Setting up the symmetry group for a
 base centered monoclinic supercell.

 Subroutine GETGRP returns: Found  1 space group operations
 (whereof  1 operations were pure point group operations)
 out of a pool of  4 trial point group operations.

The static configuration has the point symmetry C_1 .

Analysis of symmetry for dynamics (positions and initial velocities):
 Subroutine PRICEL returns:
 Original cell was already a primitive cell.

[...]

The dynamic configuration has the point symmetry C_1 .

Analysis of structural, dynamic, and magnetic symmetry:
 Subroutine PRICEL returns:
 Original cell was already a primitive cell.

 Routine SETGRP: Setting up the symmetry group for a
 base centered monoclinic supercell.

 Subroutine GETGRP returns: Found  1 space group operations
 (whereof  1 operations were pure point group operations)
 out of a pool of  4 trial point group operations.

The overall configuration has the point symmetry C_1 .

 Subroutine INISYM returns: Found  1 space group operations
 (whereof  1 operations are pure point group operations),
 and found     1 'primitive' translations

                                     Primitive cell

  volume of cell :     747.9816

  direct lattice vectors                    reciprocal lattice vectors
     6.154088000 -0.002745000  0.000611000     0.162535521  0.093943719 -0.000034071
    -3.079421000  5.327821000  0.000675000     0.000083745  0.187742402 -0.000035214
     0.002310000  0.004279000 22.818631000    -0.000004355 -0.000008069  0.043823840

  length of vectors
     6.154088643  6.153739575 22.818631518     0.187731774  0.187742424  0.043823841

  position of ions in fractional coordinates (direct lattice)
     0.666677028  0.333310611  0.500000695
     0.999989260  0.000021870  0.500000530
     0.333113150  0.029071810  0.557998187
     0.971390735  0.304732769  0.557849020
     0.695759454  0.666447055  0.558003728
     0.695276901  0.028595863  0.442150097
     0.333556670  0.304266304  0.442000817
     0.970904157  0.666881836  0.441995401

  ion indices of the primitive-cell ions
   primitive index   ion index
                 1           1
                 2           2
                 3           3
                 4           4
                 5           5
                 6           6
                 7           7
                 8           8

 KPOINTS: K-Path Generated by VASPKIT.

Interpolating k-points between supplied coordinates.

 Line segments in fractional coordinates (reciprocal lattice):
    0.000000  0.000000  0.000000  ...  0.500000  0.000000  0.000000
    0.500000  0.000000  0.000000  ...  0.333333  0.333333  0.000000
    0.333333  0.333333  0.000000  ...  0.000000  0.000000  0.000000

 Generated    20 points on each line segment, for a total of     60 k-points:

 Following reciprocal coordinates:
            Coordinates               Weight
  0.000000  0.000000  0.000000      0.016667
  0.026316  0.000000  0.000000      0.016667
  0.052632  0.000000  0.000000      0.016667
  0.078947  0.000000  0.000000      0.016667
  0.105263  0.000000  0.000000      0.016667
  0.131579  0.000000  0.000000      0.016667
  0.157895  0.000000  0.000000      0.016667
  0.184211  0.000000  0.000000      0.016667
  0.210526  0.000000  0.000000      0.016667
  0.236842  0.000000  0.000000      0.016667
  0.263158  0.000000  0.000000      0.016667
  0.289474  0.000000  0.000000      0.016667
  0.315789  0.000000  0.000000      0.016667
  0.342105  0.000000  0.000000      0.016667
  0.368421  0.000000  0.000000      0.016667
  0.394737  0.000000  0.000000      0.016667
  0.421053  0.000000  0.000000      0.016667
  0.447368  0.000000  0.000000      0.016667
  0.473684  0.000000  0.000000      0.016667
  0.500000  0.000000  0.000000      0.016667
  0.500000  0.000000  0.000000      0.016667
  0.491228  0.017544  0.000000      0.016667
  0.482456  0.035088  0.000000      0.016667
  0.473684  0.052632  0.000000      0.016667
  0.464912  0.070175  0.000000      0.016667
  0.456140  0.087719  0.000000      0.016667
  0.447368  0.105263  0.000000      0.016667
  0.438596  0.122807  0.000000      0.016667
  0.429825  0.140351  0.000000      0.016667
  0.421053  0.157895  0.000000      0.016667
  0.412281  0.175439  0.000000      0.016667
  0.403509  0.192982  0.000000      0.016667
  0.394737  0.210526  0.000000      0.016667
  0.385965  0.228070  0.000000      0.016667
  0.377193  0.245614  0.000000      0.016667
  0.368421  0.263158  0.000000      0.016667
  0.359649  0.280702  0.000000      0.016667
  0.350877  0.298246  0.000000      0.016667
  0.342105  0.315789  0.000000      0.016667
  0.333333  0.333333  0.000000      0.016667
  0.333333  0.333333  0.000000      0.016667
  0.315789  0.315789  0.000000      0.016667
  0.298246  0.298246  0.000000      0.016667
  0.280702  0.280702  0.000000      0.016667
  0.263158  0.263158  0.000000      0.016667
  0.245614  0.245614  0.000000      0.016667
  0.228070  0.228070  0.000000      0.016667
  0.210526  0.210526  0.000000      0.016667
  0.192982  0.192982  0.000000      0.016667
  0.175439  0.175439  0.000000      0.016667
  0.157895  0.157895  0.000000      0.016667
  0.140351  0.140351  0.000000      0.016667
  0.122807  0.122807  0.000000      0.016667
  0.105263  0.105263  0.000000      0.016667
  0.087719  0.087719  0.000000      0.016667
  0.070175  0.070175  0.000000      0.016667
  0.052632  0.052632  0.000000      0.016667
  0.035088  0.035088  0.000000      0.016667
  0.017544  0.017544  0.000000      0.016667
  0.000000  0.000000  0.000000      0.016667

 Following cartesian coordinates:
            Coordinates               Weight
  0.000000  0.000000  0.000000      0.016667
  0.004277  0.002472 -0.000001      0.016667
  0.008555  0.004944 -0.000002      0.016667
  0.012832  0.007417 -0.000003      0.016667
  0.017109  0.009889 -0.000004      0.016667
  0.021386  0.012361 -0.000004      0.016667
  0.025664  0.014833 -0.000005      0.016667
  0.029941  0.017305 -0.000006      0.016667
  0.034218  0.019778 -0.000007      0.016667
  0.038495  0.022250 -0.000008      0.016667
  0.042773  0.024722 -0.000009      0.016667
  0.047050  0.027194 -0.000010      0.016667
  0.051327  0.029666 -0.000011      0.016667
  0.055604  0.032139 -0.000012      0.016667
  0.059882  0.034611 -0.000013      0.016667
  0.064159  0.037083 -0.000013      0.016667
  0.068436  0.039555 -0.000014      0.016667
  0.072713  0.042027 -0.000015      0.016667
  0.076991  0.044500 -0.000016      0.016667
  0.081268  0.046972 -0.000017      0.016667
  0.081268  0.046972 -0.000017      0.016667
  0.079843  0.049442 -0.000017      0.016667
  0.078419  0.051911 -0.000018      0.016667
  0.076995  0.054381 -0.000018      0.016667
  0.075571  0.056850 -0.000018      0.016667
  0.074146  0.059320 -0.000019      0.016667
[...]
 k-point    10 :   0.2368 0.0000 0.0000  plane waves:   13566
 k-point    11 :   0.2632 0.0000 0.0000  plane waves:   13573
 k-point    12 :   0.2895 0.0000 0.0000  plane waves:   13564
 k-point    13 :   0.3158 0.0000 0.0000  plane waves:   13572
 k-point    14 :   0.3421 0.0000 0.0000  plane waves:   13587
 k-point    15 :   0.3684 0.0000 0.0000  plane waves:   13592
 k-point    16 :   0.3947 0.0000 0.0000  plane waves:   13608
 k-point    17 :   0.4211 0.0000 0.0000  plane waves:   13592
 k-point    18 :   0.4474 0.0000 0.0000  plane waves:   13594
 k-point    19 :   0.4737 0.0000 0.0000  plane waves:   13590
 k-point    20 :   0.5000 0.0000 0.0000  plane waves:   13594
 k-point    21 :   0.5000 0.0000 0.0000  plane waves:   13594
 k-point    22 :   0.4912 0.0175 0.0000  plane waves:   13595
 k-point    23 :   0.4825 0.0351 0.0000  plane waves:   13591
 k-point    24 :   0.4737 0.0526 0.0000  plane waves:   13590
 k-point    25 :   0.4649 0.0702 0.0000  plane waves:   13586
 k-point    26 :   0.4561 0.0877 0.0000  plane waves:   13568
 k-point    27 :   0.4474 0.1053 0.0000  plane waves:   13573
 k-point    28 :   0.4386 0.1228 0.0000  plane waves:   13581
 k-point    29 :   0.4298 0.1404 0.0000  plane waves:   13581
 k-point    30 :   0.4211 0.1579 0.0000  plane waves:   13594
 k-point    31 :   0.4123 0.1754 0.0000  plane waves:   13612
 k-point    32 :   0.4035 0.1930 0.0000  plane waves:   13627
 k-point    33 :   0.3947 0.2105 0.0000  plane waves:   13638
 k-point    34 :   0.3860 0.2281 0.0000  plane waves:   13631
 k-point    35 :   0.3772 0.2456 0.0000  plane waves:   13629
 k-point    36 :   0.3684 0.2632 0.0000  plane waves:   13622
 k-point    37 :   0.3596 0.2807 0.0000  plane waves:   13609
 k-point    38 :   0.3509 0.2982 0.0000  plane waves:   13597
 k-point    39 :   0.3421 0.3158 0.0000  plane waves:   13592
 k-point    40 :   0.3333 0.3333 0.0000  plane waves:   13592
 k-point    41 :   0.3333 0.3333 0.0000  plane waves:   13592
 k-point    42 :   0.3158 0.3158 0.0000  plane waves:   13608
 k-point    43 :   0.2982 0.2982 0.0000  plane waves:   13611
 k-point    44 :   0.2807 0.2807 0.0000  plane waves:   13626
 k-point    45 :   0.2632 0.2632 0.0000  plane waves:   13607
 k-point    46 :   0.2456 0.2456 0.0000  plane waves:   13636
 k-point    47 :   0.2281 0.2281 0.0000  plane waves:   13636
 k-point    48 :   0.2105 0.2105 0.0000  plane waves:   13605
 k-point    49 :   0.1930 0.1930 0.0000  plane waves:   13597
 k-point    50 :   0.1754 0.1754 0.0000  plane waves:   13602
 k-point    51 :   0.1579 0.1579 0.0000  plane waves:   13583
 k-point    52 :   0.1404 0.1404 0.0000  plane waves:   13584
 k-point    53 :   0.1228 0.1228 0.0000  plane waves:   13574
 k-point    54 :   0.1053 0.1053 0.0000  plane waves:   13557
 k-point    55 :   0.0877 0.0877 0.0000  plane waves:   13566
 k-point    56 :   0.0702 0.0702 0.0000  plane waves:   13556
 k-point    57 :   0.0526 0.0526 0.0000  plane waves:   13535
 k-point    58 :   0.0351 0.0351 0.0000  plane waves:   13519
 k-point    59 :   0.0175 0.0175 0.0000  plane waves:   13505
 k-point    60 :   0.0000 0.0000 0.0000  plane waves:   13529

 maximum and minimum number of plane-waves per node :     13638    13505

 maximum number of plane-waves:     13638
 maximum index in each direction:
   IXMAX=   10   IYMAX=   10   IZMAX=   37
   IXMIN=  -10   IYMIN=  -10   IZMIN=  -37

 serial   3D FFT for wavefunctions
 parallel 3D FFT for charge:
    minimum data exchange during FFTs selected (reduces bandwidth)

 initial charge density was supplied:
 number of electron      53.9999941 magnetization       5.9999989
 keeping initial charge density in first step

 Maximum index for augmentation-charges          389 (set IRDMAX)

 First call to EWALD:  gamma=   0.195
 Maximum number of real-space cells   4x   4x   1
 Maximum number of reciprocal cells   2x   2x   6

--------------------------------------- Ionic step        1  -------------------------------------------

--------------------------------------- Iteration      1(   1)  ---------------------------------------

 eigenvalue-minimisations  : 10080
 total energy-change (2. order) : 0.3764108E+03  (-0.1678105E+04)
 number of electron      53.9999941 magnetization       5.9999989
 augmentation part       53.9999941 magnetization       5.9999989

 Free energy of the ion-electron system (eV)
  alpha Z        PSCENC =        23.01523305
  Ewald energy   TEWEN  =      7673.06934580
  -Hartree energ DENC   =    -10334.18392833
  -exchange      EXHF   =         0.00000000
  -V(xc)+E(xc)   XCENC  =        85.97736076
  PAW double counting   =      3633.91577118    -3596.79446307
  entropy T*S    EENTRO =        -0.04062866
  eigenvalues    EBANDS =      -120.61794306
  atomic energy  EATOM  =      3012.07006103
  Solvation  Ediel_sol  =         0.00000000
  free energy    TOTEN  =       376.41080870 eV

  energy without entropy =      376.45143736  energy(sigma->0) =      376.43112303

[...]

 eigenvalue-minimisations  : 19110
 total energy-change (2. order) :-0.3882941E+03  (-0.3852142E+03)
 number of electron      53.9999941 magnetization       5.9999989
 augmentation part       53.9999941 magnetization       5.9999989

[...]

--------------------------------------- Iteration      1(   6)  ---------------------------------------

 eigenvalue-minimisations  : 20076
 total energy-change (2. order) :-0.2084465E-05  (-0.2084466E-05)
 number of electron      53.9999941 magnetization       5.9999989
 augmentation part       53.9999941 magnetization       5.9999989

 Free energy of the ion-electron system (eV)
  alpha Z        PSCENC =        23.01523305
  Ewald energy   TEWEN  =      7673.06934580
  -Hartree energ DENC   =    -10334.18392833
  -exchange      EXHF   =         0.00000000
  -V(xc)+E(xc)   XCENC  =        85.97736076
  PAW double counting   =      3633.91577118    -3596.79446307
  entropy T*S    EENTRO =        -0.00000000
  eigenvalues    EBANDS =      -535.80702750
  atomic energy  EATOM  =      3012.07006103
  Solvation  Ediel_sol  =         0.00000000
  free energy    TOTEN  =       -38.73764708 eV

  energy without entropy =      -38.73764708  energy(sigma->0) =      -38.73764708

 average (electrostatic) potential at core
  the test charge radii are     1.1394  0.9406
  (the norm of the test charge is              1.0000)
       1 -53.2895       2 -53.2895       3 -99.6768       4 -99.6755       5 -99.6768
       6 -99.6750       7 -99.6764       8 -99.6763

 E-fermi :  -4.2226     XC(G=0):  -2.5575     alpha+bet : -2.0165

 val. band max:       -4.7088669837   @ k =   0.5000   0.0000   0.0000
 cond. band min:      -3.2846598985   @ k =   0.3333   0.3333   0.0000
 fundamental gap:      1.4242070852
 Fermi energy:        -4.2226398225

 spin component 1

 k-point     1 :       0.0000    0.0000    0.0000
  band No.  band energies     occupation
      1     -19.9280      1.00000
      2     -19.0989      1.00000
      3     -19.0331      1.00000
      4     -19.0327      1.00000
      5     -18.8855      1.00000
      6     -18.8854      1.00000
      7      -9.6801      1.00000
      8      -9.1927      1.00000
      9      -8.7583      1.00000
     10      -8.7541      1.00000
     11      -8.6978      1.00000
     12      -8.6908      1.00000
     13      -8.3808      1.00000
     14      -8.3773      1.00000
     15      -8.2950      1.00000
     16      -7.5465      1.00000
     17      -7.5430      1.00000
     18      -7.5389      1.00000
     19      -6.7030      1.00000
     20      -6.4384      1.00000
     21      -6.3942      1.00000
     22      -6.3892      1.00000
     23      -6.1390      1.00000
     24      -6.1363      1.00000
     25      -5.5388      1.00000
     26      -5.1830      1.00000
     27      -5.1826      1.00000
     28      -5.0534      1.00000
     29      -4.9351      1.00000
     30      -4.9338      1.00000
     31      -3.2326      0.00000
     32      -3.2306      0.00000
     33      -2.9380      0.00000
     34      -2.9379      0.00000
     35       0.9367      0.00000
     36       1.5800      0.00000
     37       2.0196      0.00000
     38       2.5171      0.00000
     39       2.7095      0.00000
     40       2.9911      0.00000
     41       2.9971      0.00000
     42       4.0650      0.00000

[...]

 k-point    60 :       0.0000    0.0000    0.0000
  band No.  band energies     occupation
      1     -19.9280      1.00000
      2     -19.0989      1.00000
      3     -19.0331      1.00000
      4     -19.0327      1.00000
      5     -18.8855      1.00000
      6     -18.8854      1.00000
      7      -9.6801      1.00000
      8      -9.1927      1.00000
      9      -8.7583      1.00000
     10      -8.7541      1.00000
     11      -8.6978      1.00000
     12      -8.6908      1.00000
     13      -8.3808      1.00000
     14      -8.3773      1.00000
     15      -8.2950      1.00000
     16      -7.5465      1.00000
     17      -7.5430      1.00000
     18      -7.5389      1.00000
     19      -6.7030      1.00000
     20      -6.4384      1.00000
     21      -6.3942      1.00000
     22      -6.3892      1.00000
     23      -6.1390      1.00000
     24      -6.1363      1.00000
     25      -5.5388      1.00000
     26      -5.1830      1.00000
     27      -5.1826      1.00000
     28      -5.0534      1.00000
     29      -4.9351      1.00000
     30      -4.9338      1.00000
     31      -3.2326      0.00000
     32      -3.2306      0.00000
     33      -2.9380      0.00000
     34      -2.9379      0.00000
     35       0.9367      0.00000
     36       1.5800      0.00000
     37       2.0196      0.00000
     38       2.5171      0.00000
     39       2.7095      0.00000
     40       2.9911      0.00000
     41       2.9971      0.00000
     42       4.0650      0.00000
 Fermi energy:        -4.2226398225

 spin component 2

[...]

 k-point    60 :       0.0000    0.0000    0.0000
  band No.  band energies     occupation
      1     -19.9199      1.00000
      2     -19.1287      1.00000
      3     -19.0617      1.00000
      4     -19.0612      1.00000
      5     -18.9103      1.00000
      6     -18.9102      1.00000
      7      -9.4441      1.00000
      8      -8.9244      1.00000
      9      -8.5604      1.00000
     10      -8.5563      1.00000
     11      -8.3971      1.00000
     12      -8.3893      1.00000
     13      -8.2567      1.00000
     14      -7.8829      1.00000
     15      -7.8791      1.00000
     16      -7.3099      1.00000
     17      -7.1434      1.00000
     18      -7.1400      1.00000
     19      -6.6605      1.00000
     20      -6.4418      1.00000
     21      -6.2096      1.00000
     22      -6.2041      1.00000
     23      -6.0652      1.00000
     24      -6.0626      1.00000
     25      -2.5807      0.00000
     26      -2.5325      0.00000
     27      -2.5322      0.00000
     28      -2.4230      0.00000
     29      -2.2937      0.00000
     30      -2.2928      0.00000
     31      -1.4442      0.00000
     32      -1.4424      0.00000
     33      -1.2912      0.00000
     34      -1.2907      0.00000
     35       1.0786      0.00000
     36       1.6107      0.00000
     37       2.0484      0.00000
     38       2.7061      0.00000
     39       2.8629      0.00000
     40       3.0876      0.00000
     41       3.6521      0.00000
     42       4.1514      0.00000

 soft charge-density along one line, spin component           1
         0         1         2         3         4         5         6         7         8         9
 total charge-density along one line

 soft charge-density along one line, spin component           2
         0         1         2         3         4         5         6         7         8         9
 total charge-density along one line

------------------------ aborting loop because EDIFF is reached ----------------------------------------

 total charge

# of ion       s       p       d       tot
    1        0.344   0.505   4.153   5.002
    2        0.344   0.505   4.153   5.002
    3        1.604   3.502   0.000   5.107
    4        1.603   3.504   0.000   5.107
    5        1.603   3.504   0.000   5.108
    6        1.603   3.504   0.000   5.107
    7        1.604   3.502   0.000   5.106
    8        1.603   3.504   0.000   5.108
tot         10.310  22.031   8.306  40.647

 magnetization (x)

[...]

  FORCE on cell =-STRESS in cart. coord.  units (eV):
  Direction    XX          YY          ZZ          XY          YZ          ZX
  Alpha Z    23.01523    23.01523    23.01523
  Ewald    9327.73960  9328.27386-10982.94561     0.44962     3.92379     2.13125
  Hartree  9931.42933  9931.87099 -9529.31127     0.24544     3.89760     1.95407
  E(xc)    -209.11788  -209.12339  -209.37638     0.01095    -0.01467     0.00550
  Local  -20281.12496-20282.49997 19485.77882    -0.02045    -8.13898    -3.96845
  n-local   475.83297   476.04877   474.65201    -0.34914    -0.06345     0.00272
  augment   -58.85965   -58.80648   -58.96601    -0.07266    -0.00406     0.01218
  Kinetic   788.76330   788.58679   796.05483     0.18535     0.15856    -0.06349
  Fock        0.00000     0.00000     0.00000     0.00000     0.00000     0.00000
  Total      -2.32207    -2.63420    -1.09837     0.44911    -0.24120     0.07378
  in kB      -4.97387    -5.64246    -2.35271     0.96200    -0.51666     0.15803

 VOLUME and BASIS-vectors are now :
  energy-cutoff  :      400.00
  volume of cell :      747.98
      direct lattice vectors                 reciprocal lattice vectors
     6.154088000 -0.002745000  0.000611000     0.162535521  0.093943719 -0.000034071
    -3.079421000  5.327821000  0.000675000     0.000083745  0.187742402 -0.000035214
     0.002310000  0.004279000 22.818631000    -0.000004355 -0.000008069  0.043823840

  length of vectors
     6.154088643  6.153739575 22.818631518     0.187731774  0.187742424  0.043823841

 FORCES acting on ions
    electron-ion (+dipol)            ewald-force                    non-local-force                 convergence-correction
   -.257E+00 0.101E+00 0.495E-02   0.191E+00 -.121E+00 -.113E-02   0.230E-01 0.360E-02 0.314E-03   0.346E-01 0.584E-02 -.562E-02
   0.252E+00 -.975E-01 -.220E-02   -.186E+00 0.118E+00 0.588E-02   -.234E-01 -.328E-02 0.271E-02   -.328E-01 -.705E-02 -.669E-02
   -.364E+02 0.629E+02 -.482E+03   0.373E+02 -.646E+02 0.485E+03   -.998E+00 0.176E+01 -.307E+01   0.375E-01 -.260E-01 -.224E-01
   -.361E+02 -.629E+02 -.481E+03   0.373E+02 0.646E+02 0.484E+03   -.103E+01 -.174E+01 -.287E+01   -.735E-01 0.103E-01 0.138E-01
   0.726E+02 -.223E+00 -.482E+03   -.746E+02 0.306E-01 0.485E+03   0.200E+01 0.367E-01 -.291E+01   0.162E-01 0.884E-01 0.225E-02
   0.361E+02 0.629E+02 0.481E+03   -.373E+02 -.646E+02 -.484E+03   0.102E+01 0.174E+01 0.287E+01   0.729E-01 -.951E-02 -.169E-01
   0.364E+02 -.629E+02 0.482E+03   -.373E+02 0.646E+02 -.485E+03   0.998E+00 -.176E+01 0.307E+01   -.376E-01 0.243E-01 0.177E-01
   -.726E+02 0.219E+00 0.482E+03   0.746E+02 -.268E-01 -.485E+03   -.200E+01 -.366E-01 0.291E+01   -.150E-01 -.879E-01 -.471E-02
   -.198E-02 0.175E-02 0.164E-01   -.142E-13 0.731E-14 0.227E-12   -.627E-04 -.172E-03 0.562E-02   0.218E-02 -.169E-02 -.225E-01

 POSITION                                       TOTAL-FORCE (eV/Angst)
      3.07754      1.77613     11.40996        -0.008943     -0.010361     -0.001417
      6.15511     -0.00049     11.40994         0.009085      0.010256     -0.000250
      1.96177      0.15636     12.73298        -0.043663      0.052271     -0.033351
      5.04091      1.62328     12.73015         0.041913     -0.038529     -0.027034
      2.23078      3.55119     12.73376         0.015945     -0.067325     -0.027253
      4.19176      0.15234     10.08970        -0.041971      0.038731      0.027583
      1.11679      1.62205     10.08626         0.043670     -0.052502      0.033941
      3.92244      3.55225     10.08677        -0.016035      0.067459      0.027781
    total drift:                                0.000139     -0.000105     -0.000482

  FREE ENERGIE OF THE ION-ELECTRON SYSTEM (eV)
  free  energy   TOTEN  =       -38.73764708 eV

  energy  without entropy=      -38.73764708  energy(sigma->0) =      -38.73764708

 total charge

[...]

 magnetization (x)

# of ion       s       p       d       tot
    1        0.031   0.038   2.905   2.975
    2        0.031   0.038   2.905   2.975
    3       -0.001  -0.041   0.000  -0.042
    4       -0.000  -0.043   0.000  -0.043
    5       -0.000  -0.042   0.000  -0.043
    6       -0.000  -0.043   0.000  -0.043
    7       -0.001  -0.041   0.000  -0.042
    8       -0.000  -0.042   0.000  -0.043
tot          0.059  -0.175   5.811   5.695