 vasp.6.5.1 10Mar25 (build Apr 08 2025 20:07:02) complex

 executed on             LinuxIFC date 2025.06.11  14:32:39

 INCAR:
   PREC = Accurate
   ENCUT = 500
   ISMEAR = 0
   SIGMA = 0.05
   EDIFF = 1E-6
   ISPIN = 2
   LCHARG = .FALSE.
   LWAVE = .FALSE.
   NSW = 0
   IBRION = -1
   ISYM = 0
   LREAL = .FALSE.
   MAGMOM = 2*3.0 6*0.6

 POTCAR:    PAW_PBE Cr 06Sep2000
 POTCAR:    PAW_PBE Cl 06Sep2000
|           W    W    AA    RRRRR   N    N  II  N    N   GGGG   !!!           |
|           W    W   A  A   R    R  NN   N  II  NN   N  G    G  !!!           |
|           W    W  A    A  R    R  N N  N  II  N N  N  G       !!!           |
|           W WW W  AAAAAA  RRRRR   N  N N  II  N  N N  G  GGG   !            |
|           WW  WW  A    A  R   R   N   NN  II  N   NN  G    G                |
|           W    W  A    A  R    R  N    N  II  N    N   GGGG   !!!           |
|     For optimal performance we recommend to set                             |
|       NCORE = 2 up to number-of-cores-per-socket                            |
|     This setting can greatly improve the performance of VASP for DFT.       |
|     The default, NCORE=1 might be grossly inefficient on modern             |
|     multi-core architectures or massively parallel machines. Do your        |
|     Unfortunately you need to use the default for GW and RPA                |
|     calculations (for HF NCORE is supported but not extensively tested      |
|     yet).                                                                   |

   TITEL  = PAW_PBE Cr 06Sep2000
   POMASS =   51.996; ZVAL   =    6.000    mass and valenz
   ENMAX  =  227.080; ENMIN  =  170.310 eV

   TITEL  = PAW_PBE Cl 06Sep2000
   POMASS =   35.453; ZVAL   =    7.000    mass and valenz
   ENMAX  =  262.472; ENMIN  =  196.854 eV

  PAW_PBE Cr 06Sep2000                  :
  PAW_PBE Cl 06Sep2000                  :

 POSCAR:
|           W    W    AA    RRRRR   N    N  II  N    N   GGGG   !!!           |
|           W    W   A  A   R    R  NN   N  II  NN   N  G    G  !!!           |
|           W    W  A    A  R    R  N N  N  II  N N  N  G       !!!           |
|           W WW W  AAAAAA  RRRRR   N  N N  II  N  N N  G  GGG   !            |
|           WW  WW  A    A  R   R   N   NN  II  N   NN  G    G                |
|           W    W  A    A  R    R  N    N  II  N    N   GGGG   !!!           |
|     Inconsistent Bravais lattice types found for crystalline and            |
|     reciprocal lattice:                                                     |
|        Crystalline: base-centered monoclinic                                |
|        Reciprocal : triclinic                                               |
|                    (instead of base-centered monoclinic)                    |
|     In most cases this is due to inaccuracies in the specification of       |
|     the crytalline lattice vectors.                                         |
|     Suggested SOLUTIONS:                                                    |
|      ) Refine the lattice parameters of your structure,                     |
|      ) and/or try changing SYMPREC.                                         |

  positions in direct lattice
  velocities in cartesian coordinates

 exchange-correlation table for PE
   RHO(1)=    0.500       N(1)  =     2000
   RHO(2)=  100.500       N(2)  =     4000

 ion  position               nearest neighbor table
   1  0.667  0.333  0.500-   3 2.37   8 2.37   5 2.37   7 2.37   4 2.37   6 2.37
   2  1.000  0.000  0.500-   7 2.37   5 2.37   3 2.37   8 2.37   4 2.37   6 2.37
   3  0.333  0.029  0.558-   1 2.37   2 2.37
   4  0.971  0.305  0.558-   2 2.37   1 2.37
   5  0.696  0.666  0.558-   2 2.37   1 2.37
   6  0.695  0.029  0.442-   2 2.37   1 2.37
   7  0.334  0.304  0.442-   2 2.37   1 2.37
   8  0.971  0.667  0.442-   1 2.37   2 2.37

IMPORTANT INFORMATION: All symmetrisations will be switched off!
NOSYMM: (Re-)initialisation of all symmetry stuff for point group C_1.

                                     Primitive cell

  volume of cell :     747.9816

  direct lattice vectors                    reciprocal lattice vectors
     6.154088000 -0.002745000  0.000611000     0.162535521  0.093943719 -0.000034071
    -3.079421000  5.327821000  0.000675000     0.000083745  0.187742402 -0.000035214
     0.002310000  0.004279000 22.818631000    -0.000004355 -0.000008069  0.043823840

  length of vectors
     6.154088643  6.153739575 22.818631518     0.187731774  0.187742424  0.043823841

  position of ions in fractional coordinates (direct lattice)
     0.666677028  0.333310611  0.500000695
     0.999989260  0.000021870  0.500000530
     0.333113150  0.029071810  0.557998187
     0.971390735  0.304732769  0.557849020
     0.695759454  0.666447055  0.558003728
     0.695276901  0.028595863  0.442150097
     0.333556670  0.304266304  0.442000817
     0.970904157  0.666881836  0.441995401

  ion indices of the primitive-cell ions
   primitive index   ion index
                 1           1
                 2           2
                 3           3
                 4           4
                 5           5
                 6           6
                 7           7
                 8           8

 KPOINTS: Automatic mesh

Automatic generation of k-mesh.
 Grid dimensions read from file:
 generate k-points for:    6    6    4

 Generating k-lattice:

  Cartesian coordinates                     Fractional coordinates (reciprocal lattice)
     0.027089253  0.015657286 -0.000005678     0.166666667 -0.000000000  0.000000000
     0.000013958  0.031290400 -0.000005869     0.000000000  0.166666667  0.000000000
    -0.000001089 -0.000002017  0.010955960     0.000000000 -0.000000000  0.250000000

  Length of vectors
     0.031288629  0.031290404  0.010955960

  Shift w.r.t. Gamma in fractional coordinates (k-lattice)
     0.500000000  0.500000000  0.500000000

 Subroutine IBZKPT returns following result:

 Found     72 irreducible k-points:

 Following reciprocal coordinates:
            Coordinates               Weight
  0.083333  0.083333  0.125000      2.000000
  0.250000  0.083333  0.125000      2.000000
  0.416667  0.083333  0.125000      2.000000
 -0.416667  0.083333  0.125000      2.000000
 -0.250000  0.083333  0.125000      2.000000
 -0.083333  0.083333  0.125000      2.000000
  0.083333  0.250000  0.125000      2.000000
  0.250000  0.250000  0.125000      2.000000
  0.416667  0.250000  0.125000      2.000000
 -0.416667  0.250000  0.125000      2.000000
 -0.250000  0.250000  0.125000      2.000000
 -0.083333  0.250000  0.125000      2.000000
  0.083333  0.416667  0.125000      2.000000
  0.250000  0.416667  0.125000      2.000000
  0.416667  0.416667  0.125000      2.000000
 -0.416667  0.416667  0.125000      2.000000
 -0.250000  0.416667  0.125000      2.000000
 -0.083333  0.416667  0.125000      2.000000
  0.083333 -0.416667  0.125000      2.000000
  0.250000 -0.416667  0.125000      2.000000
  0.416667 -0.416667  0.125000      2.000000
 -0.416667 -0.416667  0.125000      2.000000
 -0.250000 -0.416667  0.125000      2.000000
 -0.083333 -0.416667  0.125000      2.000000
  0.083333 -0.250000  0.125000      2.000000
  0.250000 -0.250000  0.125000      2.000000
  0.416667 -0.250000  0.125000      2.000000
 -0.416667 -0.250000  0.125000      2.000000
 -0.250000 -0.250000  0.125000      2.000000
 -0.083333 -0.250000  0.125000      2.000000
  0.083333 -0.083333  0.125000      2.000000
  0.250000 -0.083333  0.125000      2.000000
  0.416667 -0.083333  0.125000      2.000000
 -0.416667 -0.083333  0.125000      2.000000
 -0.250000 -0.083333  0.125000      2.000000
 -0.083333 -0.083333  0.125000      2.000000
  0.083333  0.083333  0.375000      2.000000
  0.250000  0.083333  0.375000      2.000000
  0.416667  0.083333  0.375000      2.000000
 -0.416667  0.083333  0.375000      2.000000
 -0.250000  0.083333  0.375000      2.000000
 -0.083333  0.083333  0.375000      2.000000
  0.083333  0.250000  0.375000      2.000000
  0.250000  0.250000  0.375000      2.000000
  0.416667  0.250000  0.375000      2.000000
 -0.416667  0.250000  0.375000      2.000000
 -0.250000  0.250000  0.375000      2.000000
 -0.083333  0.250000  0.375000      2.000000
  0.083333  0.416667  0.375000      2.000000
  0.250000  0.416667  0.375000      2.000000
  0.416667  0.416667  0.375000      2.000000
 -0.416667  0.416667  0.375000      2.000000
 -0.250000  0.416667  0.375000      2.000000
 -0.083333  0.416667  0.375000      2.000000
  0.083333 -0.416667  0.375000      2.000000
  0.250000 -0.416667  0.375000      2.000000
  0.416667 -0.416667  0.375000      2.000000
 -0.416667 -0.416667  0.375000      2.000000
 -0.250000 -0.416667  0.375000      2.000000
 -0.083333 -0.416667  0.375000      2.000000
  0.083333 -0.250000  0.375000      2.000000
  0.250000 -0.250000  0.375000      2.000000
  0.416667 -0.250000  0.375000      2.000000
 -0.416667 -0.250000  0.375000      2.000000
 -0.250000 -0.250000  0.375000      2.000000
 -0.083333 -0.250000  0.375000      2.000000
  0.083333 -0.083333  0.375000      2.000000
  0.250000 -0.083333  0.375000      2.000000
  0.416667 -0.083333  0.375000      2.000000
 -0.416667 -0.083333  0.375000      2.000000
 -0.250000 -0.083333  0.375000      2.000000
 -0.083333 -0.083333  0.375000      2.000000

 Following cartesian coordinates:
            Coordinates               Weight
  0.013551  0.023473  0.005472      2.000000
  0.040640  0.039130  0.005467      2.000000
  0.067730  0.054787  0.005461      2.000000
 -0.067717 -0.023499  0.005489      2.000000
 -0.040627 -0.007842  0.005484      2.000000
 -0.013538  0.007816  0.005478      2.000000
  0.013565  0.054763  0.005466      2.000000
  0.040654  0.070421  0.005461      2.000000
  0.067744  0.086078  0.005455      2.000000
 -0.067703  0.007791  0.005483      2.000000
 -0.040613  0.023449  0.005478      2.000000
 -0.013524  0.039106  0.005472      2.000000
  0.013579  0.086054  0.005460      2.000000
  0.040668  0.101711  0.005455      2.000000
  0.067757  0.117368  0.005449      2.000000
 -0.067689  0.039082  0.005478      2.000000
 -0.040600  0.054739  0.005472      2.000000
 -0.013510  0.070396  0.005466      2.000000
  0.013509 -0.070398  0.005490      2.000000
  0.040598 -0.054741  0.005484      2.000000
  0.067688 -0.039084  0.005478      2.000000
 -0.067759 -0.117370  0.005507      2.000000
 -0.040669 -0.101713  0.005501      2.000000
 -0.013580 -0.086056  0.005495      2.000000
  0.013523 -0.039108  0.005484      2.000000
  0.040612 -0.023451  0.005478      2.000000
  0.067702 -0.007793  0.005473      2.000000
 -0.067745 -0.086080  0.005501      2.000000
 -0.040655 -0.070423  0.005495      2.000000
 -0.013566 -0.054765  0.005490      2.000000
  0.013537 -0.007818  0.005478      2.000000
  0.040626  0.007840  0.005472      2.000000
  0.067716  0.023497  0.005467      2.000000
 -0.067731 -0.054789  0.005495      2.000000
 -0.040641 -0.039132  0.005489      2.000000
 -0.013552 -0.023475  0.005484      2.000000
  0.013550  0.023471  0.016428      2.000000
  0.040639  0.039128  0.016422      2.000000
  0.067728  0.054785  0.016417      2.000000
 -0.067718 -0.023501  0.016445      2.000000
[...]
 k-point    24 :  -0.0833-0.4167 0.1250  plane waves:   19002
 k-point    25 :   0.0833-0.2500 0.1250  plane waves:   18972
 k-point    26 :   0.2500-0.2500 0.1250  plane waves:   18970
 k-point    27 :   0.4167-0.2500 0.1250  plane waves:   18976
 k-point    28 :  -0.4167-0.2500 0.1250  plane waves:   19008
 k-point    29 :  -0.2500-0.2500 0.1250  plane waves:   18972
 k-point    30 :  -0.0833-0.2500 0.1250  plane waves:   18982
 k-point    31 :   0.0833-0.0833 0.1250  plane waves:   18998
 k-point    32 :   0.2500-0.0833 0.1250  plane waves:   18969
 k-point    33 :   0.4167-0.0833 0.1250  plane waves:   19000
 k-point    34 :  -0.4167-0.0833 0.1250  plane waves:   19001
 k-point    35 :  -0.2500-0.0833 0.1250  plane waves:   18982
 k-point    36 :  -0.0833-0.0833 0.1250  plane waves:   18983
 k-point    37 :   0.0833 0.0833 0.3750  plane waves:   18984
 k-point    38 :   0.2500 0.0833 0.3750  plane waves:   18973
 k-point    39 :   0.4167 0.0833 0.3750  plane waves:   19006
 k-point    40 :  -0.4167 0.0833 0.3750  plane waves:   18990
 k-point    41 :  -0.2500 0.0833 0.3750  plane waves:   18967
 k-point    42 :  -0.0833 0.0833 0.3750  plane waves:   19011
 k-point    43 :   0.0833 0.2500 0.3750  plane waves:   18974
 k-point    44 :   0.2500 0.2500 0.3750  plane waves:   19000
 k-point    45 :   0.4167 0.2500 0.3750  plane waves:   19012
 k-point    46 :  -0.4167 0.2500 0.3750  plane waves:   18985
 k-point    47 :  -0.2500 0.2500 0.3750  plane waves:   18986
 k-point    48 :  -0.0833 0.2500 0.3750  plane waves:   18969
 k-point    49 :   0.0833 0.4167 0.3750  plane waves:   19008
 k-point    50 :   0.2500 0.4167 0.3750  plane waves:   19010
 k-point    51 :   0.4167 0.4167 0.3750  plane waves:   18997
 k-point    52 :  -0.4167 0.4167 0.3750  plane waves:   18971
 k-point    53 :  -0.2500 0.4167 0.3750  plane waves:   18976
 k-point    54 :  -0.0833 0.4167 0.3750  plane waves:   18991
 k-point    55 :   0.0833-0.4167 0.3750  plane waves:   18989
 k-point    56 :   0.2500-0.4167 0.3750  plane waves:   18984
 k-point    57 :   0.4167-0.4167 0.3750  plane waves:   18973
 k-point    58 :  -0.4167-0.4167 0.3750  plane waves:   18993
 k-point    59 :  -0.2500-0.4167 0.3750  plane waves:   19013
 k-point    60 :  -0.0833-0.4167 0.3750  plane waves:   19005
 k-point    61 :   0.0833-0.2500 0.3750  plane waves:   18967
 k-point    62 :   0.2500-0.2500 0.3750  plane waves:   18987
 k-point    63 :   0.4167-0.2500 0.3750  plane waves:   18978
 k-point    64 :  -0.4167-0.2500 0.3750  plane waves:   19013
 k-point    65 :  -0.2500-0.2500 0.3750  plane waves:   18997
 k-point    66 :  -0.0833-0.2500 0.3750  plane waves:   18969
 k-point    67 :   0.0833-0.0833 0.3750  plane waves:   19010
 k-point    68 :   0.2500-0.0833 0.3750  plane waves:   18969
 k-point    69 :   0.4167-0.0833 0.3750  plane waves:   18989
 k-point    70 :  -0.4167-0.0833 0.3750  plane waves:   19005
 k-point    71 :  -0.2500-0.0833 0.3750  plane waves:   18969
 k-point    72 :  -0.0833-0.0833 0.3750  plane waves:   18983

 maximum and minimum number of plane-waves per node :     19013    18967

 maximum number of plane-waves:     19013
 maximum index in each direction:
   IXMAX=   11   IYMAX=   11   IZMAX=   41
   IXMIN=  -11   IYMIN=  -11   IZMIN=  -41

 serial   3D FFT for wavefunctions
 parallel 3D FFT for charge:
    minimum data exchange during FFTs selected (reduces bandwidth)

 Broyden mixing: mesh for mixing (old mesh)
   NGX = 23   NGY = 23   NGZ = 83
  (NGX  = 96   NGY  = 96   NGZ  =336)
  gives a total of  43907 points

 initial charge density was supplied:
 charge density of overlapping atoms calculated
 number of electron      54.0000000 magnetization       9.6000000
 keeping initial charge density in first step

 Maximum index for augmentation-charges         1548 (set IRDMAX)

 First call to EWALD:  gamma=   0.195
 Maximum number of real-space cells   4x   4x   1
 Maximum number of reciprocal cells   2x   2x   6

--------------------------------------- Ionic step        1  -------------------------------------------

--------------------------------------- Iteration      1(   1)  ---------------------------------------

 eigenvalue-minimisations  : 12096
 total energy-change (2. order) : 0.4333998E+03  (-0.1814905E+04)
 number of electron      54.0000000 magnetization       9.6000000
 augmentation part       54.0000000 magnetization       9.6000000

 Free energy of the ion-electron system (eV)
  alpha Z        PSCENC =        23.01523305
  Ewald energy   TEWEN  =      7673.06934580
  -Hartree energ DENC   =    -10328.30805651
  -exchange      EXHF   =         0.00000000
  -V(xc)+E(xc)   XCENC  =        82.57734315
  PAW double counting   =      2504.62862977    -2465.96035111
  entropy T*S    EENTRO =        -0.01003312
  eigenvalues    EBANDS =       -67.71902857
  atomic energy  EATOM  =      3012.10669636
  Solvation  Ediel_sol  =         0.00000000
  free energy    TOTEN  =       433.39977883 eV

  energy without entropy =      433.40981195  energy(sigma->0) =      433.40479539

[...]

 eigenvalue-minimisations  : 19698
 total energy-change (2. order) :-0.4278111E+03  (-0.4263501E+03)
 number of electron      54.0000000 magnetization       9.6000000
 augmentation part       54.0000000 magnetization       9.6000000

[...]

 Broyden mixing:
  rms(total) = 0.20004E+01    rms(broyden)= 0.20004E+01
  rms(prec ) = 0.20947E+01
  weight for this iteration     100.00

[...]

 eigenvalues of (default mixing * dielectric matrix)
  average eigenvalue GAMMA=   0.3587
  0.3587

[...]

 eigenvalue-minimisations  : 17220
 total energy-change (2. order) : 0.2051693E+01  (-0.3629029E+01)
 number of electron      53.9999988 magnetization       8.5936016
 augmentation part       -0.8040542 magnetization       6.6077066

[...]

 Broyden mixing:
  rms(total) = 0.73237E-05    rms(broyden)= 0.73236E-05
  rms(prec ) = 0.84786E-05
  weight for this iteration     100.00

 eigenvalues of (default mixing * dielectric matrix)
  average eigenvalue GAMMA=   2.0018
  8.8590  8.7938  5.3146  3.2808  2.3769  2.3769  2.3176  1.6698  1.4894  1.2113
  1.0925  1.0925  0.4191  0.8767  0.8767  0.8422  0.7513  0.7513  0.4839  0.6803
  0.6381  0.6156  0.6156  0.6165

[...]

--------------------------------------- Iteration      1(  30)  ---------------------------------------

 eigenvalue-minimisations  : 18102
 total energy-change (2. order) :-0.2790589E-06  (-0.2063850E-09)
 number of electron      53.9999988 magnetization       5.9999949
 augmentation part       -0.5275928 magnetization       4.1362345

 Free energy of the ion-electron system (eV)
  alpha Z        PSCENC =        23.01523305
  Ewald energy   TEWEN  =      7673.06934580
  -Hartree energ DENC   =    -10334.20746641
  -exchange      EXHF   =         0.00000000
  -V(xc)+E(xc)   XCENC  =        86.01245473
  PAW double counting   =      3651.34970618    -3614.14473937
  entropy T*S    EENTRO =        -0.00000000
  eigenvalues    EBANDS =      -536.07913380
  atomic energy  EATOM  =      3012.10669636
  Solvation  Ediel_sol  =         0.00000000
  free energy    TOTEN  =       -38.87790344 eV

  energy without entropy =      -38.87790344  energy(sigma->0) =      -38.87790344

 average (electrostatic) potential at core
  the test charge radii are     1.1394  0.9406
  (the norm of the test charge is              1.0000)
       1 -53.2849       2 -53.2849       3 -99.6726       4 -99.6712       5 -99.6726
       6 -99.6711       7 -99.6725       8 -99.6725

 E-fermi :  -4.5193     XC(G=0):  -2.5398     alpha+bet : -2.0165

 val. band max:       -4.7453122805   @ k =  -0.4167   0.4167   0.3750
 cond. band min:      -3.2235969085   @ k =  -0.2500  -0.4167   0.3750
 fundamental gap:      1.5217153721
 Fermi energy:        -4.5192816455

 spin component 1

 k-point     1 :       0.0833    0.0833    0.1250
  band No.  band energies     occupation
      1     -19.8887      1.00000
      2     -19.0857      1.00000
      3     -19.0766      1.00000
      4     -19.0412      1.00000
      5     -18.8910      1.00000
      6     -18.8897      1.00000
      7      -9.6680      1.00000
      8      -9.1797      1.00000
      9      -8.7764      1.00000
     10      -8.7351      1.00000
     11      -8.7045      1.00000
     12      -8.6636      1.00000
     13      -8.3885      1.00000
     14      -8.3721      1.00000
     15      -8.2920      1.00000
     16      -7.5609      1.00000
     17      -7.3882      1.00000
     18      -7.3825      1.00000
     19      -6.7507      1.00000
     20      -6.5744      1.00000
     21      -6.4964      1.00000
     22      -6.3627      1.00000
     23      -6.2468      1.00000
     24      -6.2147      1.00000
     25      -5.5121      1.00000
     26      -5.2275      1.00000
     27      -5.2124      1.00000
     28      -5.0499      1.00000
     29      -4.9283      1.00000
     30      -4.9161      1.00000
     31      -3.1735      0.00000
     32      -3.1615      0.00000
     33      -2.9654      0.00000
     34      -2.8979      0.00000
     35       1.1265      0.00000
     36       1.6901      0.00000
     37       2.2033      0.00000
     38       2.7124      0.00000
     39       2.8740      0.00000
     40       2.9735      0.00000
     41       3.1845      0.00000
     42       3.9025      0.00000

[...]

 k-point    72 :      -0.0833   -0.0833    0.3750
  band No.  band energies     occupation
      1     -19.8887      1.00000
      2     -19.0857      1.00000
      3     -19.0766      1.00000
      4     -19.0412      1.00000
      5     -18.8910      1.00000
      6     -18.8897      1.00000
      7      -9.6680      1.00000
      8      -9.1797      1.00000
      9      -8.7764      1.00000
     10      -8.7351      1.00000
     11      -8.7044      1.00000
     12      -8.6636      1.00000
     13      -8.3885      1.00000
     14      -8.3721      1.00000
     15      -8.2920      1.00000
     16      -7.5609      1.00000
     17      -7.3882      1.00000
     18      -7.3825      1.00000
     19      -6.7507      1.00000
     20      -6.5744      1.00000
     21      -6.4964      1.00000
     22      -6.3627      1.00000
     23      -6.2468      1.00000
     24      -6.2147      1.00000
     25      -5.5121      1.00000
     26      -5.2275      1.00000
     27      -5.2124      1.00000
     28      -5.0499      1.00000
     29      -4.9283      1.00000
     30      -4.9161      1.00000
     31      -3.1735      0.00000
     32      -3.1615      0.00000
     33      -2.9654      0.00000
     34      -2.8979      0.00000
     35       1.1275      0.00000
     36       1.6771      0.00000
     37       2.2937      0.00000
     38       2.5456      0.00000
     39       2.8668      0.00000
     40       2.9735      0.00000
     41       3.3900      0.00000
     42       3.9044      0.00000
 Fermi energy:        -4.5192816455

 spin component 2

[...]

 k-point    72 :      -0.0833   -0.0833    0.3750
  band No.  band energies     occupation
      1     -19.8818      1.00000
      2     -19.1150      1.00000
      3     -19.1034      1.00000
      4     -19.0704      1.00000
      5     -18.9166      1.00000
      6     -18.9157      1.00000
      7      -9.4337      1.00000
      8      -8.9112      1.00000
      9      -8.5700      1.00000
     10      -8.5041      1.00000
     11      -8.4529      1.00000
     12      -8.4270      1.00000
     13      -8.1226      1.00000
     14      -7.9748      1.00000
     15      -7.9110      1.00000
     16      -7.2286      1.00000
     17      -7.1245      1.00000
     18      -7.0914      1.00000
     19      -6.6506      1.00000
     20      -6.4773      1.00000
     21      -6.2699      1.00000
     22      -6.2543      1.00000
     23      -6.1567      1.00000
     24      -6.1086      1.00000
     25      -2.5167      0.00000
     26      -2.4167      0.00000
     27      -2.3228      0.00000
     28      -2.3223      0.00000
     29      -2.1934      0.00000
     30      -2.1665      0.00000
     31      -1.6180      0.00000
     32      -1.6127      0.00000
     33      -1.5174      0.00000
     34      -1.4646      0.00000
     35       1.2528      0.00000
     36       1.7018      0.00000
     37       2.3231      0.00000
     38       2.6412      0.00000
     39       3.1238      0.00000
     40       3.5251      0.00000
     41       3.5977      0.00000
     42       3.9651      0.00000

 soft charge-density along one line, spin component           1
         0         1         2         3         4         5         6         7         8         9
 total charge-density along one line

 soft charge-density along one line, spin component           2
         0         1         2         3         4         5         6         7         8         9
 total charge-density along one line

------------------------ aborting loop because EDIFF is reached ----------------------------------------

  FORCE on cell =-STRESS in cart. coord.  units (eV):
  Direction    XX          YY          ZZ          XY          YZ          ZX
  Alpha Z    23.01523    23.01523    23.01523
  Ewald    9327.73960  9328.27386-10982.94561     0.44962     3.92379     2.13125
  Hartree  9931.59302  9931.96512 -9529.35256     0.30305     3.72171     2.02001
  E(xc)    -209.14584  -209.14561  -209.40812     0.00015     0.00073     0.00044
  Local  -20281.41800-20282.32192 19485.78029    -0.74729    -7.63513    -4.14585
  n-local   476.73597   476.73791   475.49712     0.00236    -0.00561    -0.00336
  augment   -58.72974   -58.73104   -58.88522    -0.00114     0.00113     0.00063
  Kinetic   788.40951   788.42669   795.97338     0.00872    -0.01239    -0.00577
  Fock        0.00000     0.00000     0.00000     0.00000     0.00000     0.00000
  Total      -1.80025    -1.77976    -0.32550     0.01547    -0.00578    -0.00266
  in kB      -3.85614    -3.81225    -0.69721     0.03314    -0.01239    -0.00569

 VOLUME and BASIS-vectors are now :
  energy-cutoff  :      500.00
  volume of cell :      747.98
      direct lattice vectors                 reciprocal lattice vectors
     6.154088000 -0.002745000  0.000611000     0.162535521  0.093943719 -0.000034071
    -3.079421000  5.327821000  0.000675000     0.000083745  0.187742402 -0.000035214
     0.002310000  0.004279000 22.818631000    -0.000004355 -0.000008069  0.043823840

  length of vectors
     6.154088643  6.153739575 22.818631518     0.187731774  0.187742424  0.043823841

 FORCES acting on ions
    electron-ion (+dipol)            ewald-force                    non-local-force                 convergence-correction
   -.188E+00 0.119E+00 0.956E-03   0.191E+00 -.121E+00 -.113E-02   0.188E-03 0.401E-04 -.319E-03   0.290E-07 -.166E-07 -.596E-07
   0.184E+00 -.117E+00 -.625E-02   -.186E+00 0.118E+00 0.588E-02   0.741E-05 -.151E-03 0.637E-04   -.708E-08 0.803E-08 -.582E-07
   -.363E+02 0.629E+02 -.482E+03   0.373E+02 -.646E+02 0.485E+03   -.101E+01 0.176E+01 -.302E+01   -.245E-05 0.224E-04 -.893E-06
   -.363E+02 -.628E+02 -.481E+03   0.373E+02 0.646E+02 0.484E+03   -.103E+01 -.178E+01 -.301E+01   -.183E-04 -.137E-04 -.798E-06
   0.726E+02 -.340E-01 -.482E+03   -.746E+02 0.306E-01 0.485E+03   0.203E+01 0.508E-02 -.302E+01   0.206E-04 -.890E-05 -.889E-06
   0.363E+02 0.628E+02 0.481E+03   -.373E+02 -.646E+02 -.484E+03   0.103E+01 0.178E+01 0.301E+01   0.278E-05 0.227E-04 0.748E-06
   0.363E+02 -.629E+02 0.482E+03   -.373E+02 0.646E+02 -.485E+03   0.101E+01 -.176E+01 0.302E+01   0.180E-04 -.134E-04 0.825E-06
   -.726E+02 0.302E-01 0.482E+03   0.746E+02 -.268E-01 -.485E+03   -.203E+01 -.496E-02 0.302E+01   -.206E-04 -.907E-05 0.826E-06
   -.184E-03 0.110E-03 -.445E-03   -.142E-13 0.731E-14 0.227E-12   0.184E-03 -.110E-03 0.444E-03   0.657E-07 -.159E-07 -.299E-06

 POSITION                                       TOTAL-FORCE (eV/Angst)
      3.07754      1.77613     11.40996         0.002664     -0.001300     -0.000490
      6.15511     -0.00049     11.40994        -0.002581      0.001257     -0.000313
      1.96177      0.15636     12.73298        -0.017514      0.033290     -0.030180
      5.04091      1.62328     12.73015        -0.021282     -0.037084     -0.025916
      2.23078      3.55119     12.73376         0.037760      0.001658     -0.030609
      4.19176      0.15234     10.08970         0.021218      0.037251      0.026178
      1.11679      1.62205     10.08626         0.017521     -0.033534      0.030489
      3.92244      3.55225     10.08677        -0.037787     -0.001539      0.030841
    total drift:                                0.000000     -0.000000     -0.000001

  FREE ENERGIE OF THE ION-ELECTRON SYSTEM (eV)
  free  energy   TOTEN  =       -38.87790344 eV

  energy  without entropy=      -38.87790344  energy(sigma->0) =      -38.87790344