 vasp.6.5.1 10Mar25 (build Apr 08 2025 20:07:02) complex

 executed on             LinuxIFC date 2025.06.11  14:32:40

 INCAR:
   PREC = Accurate
   ENCUT = 500
   ISMEAR = 0
   SIGMA = 0.05
   EDIFF = 1E-6
   ISPIN = 2
   LCHARG = .FALSE.
   LWAVE = .FALSE.
   NSW = 0
   IBRION = -1
   ISYM = 0
   LREAL = .FALSE.
   MAGMOM = 1*5.0

 POTCAR:    PAW_PBE Cr 06Sep2000
|           W    W    AA    RRRRR   N    N  II  N    N   GGGG   !!!           |
|           W    W   A  A   R    R  NN   N  II  NN   N  G    G  !!!           |
|           W    W  A    A  R    R  N N  N  II  N N  N  G       !!!           |
|           W WW W  AAAAAA  RRRRR   N  N N  II  N  N N  G  GGG   !            |
|           WW  WW  A    A  R   R   N   NN  II  N   NN  G    G                |
|           W    W  A    A  R    R  N    N  II  N    N   GGGG   !!!           |
|     For optimal performance we recommend to set                             |
|       NCORE = 2 up to number-of-cores-per-socket                            |
|     This setting can greatly improve the performance of VASP for DFT.       |
|     The default, NCORE=1 might be grossly inefficient on modern             |
|     multi-core architectures or massively parallel machines. Do your        |
|     Unfortunately you need to use the default for GW and RPA                |
|     calculations (for HF NCORE is supported but not extensively tested      |
|     yet).                                                                   |

   TITEL  = PAW_PBE Cr 06Sep2000
   POMASS =   51.996; ZVAL   =    6.000    mass and valenz
   ENMAX  =  227.080; ENMIN  =  170.310 eV

  PAW_PBE Cr 06Sep2000                  :

 POSCAR: Cr bulk bcc
  positions in direct lattice

 exchange-correlation table for PE
   RHO(1)=    0.500       N(1)  =     2000
   RHO(2)=  100.500       N(2)  =     4000

 ion  position               nearest neighbor table
   1  0.000  0.000  0.000-

IMPORTANT INFORMATION: All symmetrisations will be switched off!
NOSYMM: (Re-)initialisation of all symmetry stuff for point group C_1.

                                     Primitive cell

  volume of cell :      15.2530

  direct lattice vectors                    reciprocal lattice vectors
     2.480000000  0.000000000  0.000000000     0.403225806  0.000000000  0.000000000
     0.000000000  2.480000000  0.000000000     0.000000000  0.403225806  0.000000000
     0.000000000  0.000000000  2.480000000     0.000000000  0.000000000  0.403225806

  length of vectors
     2.480000000  2.480000000  2.480000000     0.403225806  0.403225806  0.403225806

  position of ions in fractional coordinates (direct lattice)
     0.000000000  0.000000000  0.000000000

  ion indices of the primitive-cell ions
   primitive index   ion index
                 1           1

 KPOINTS: Automatic mesh

Automatic generation of k-mesh.
 Grid dimensions read from file:
 generate k-points for:    6    6    4

 Generating k-lattice:

  Cartesian coordinates                     Fractional coordinates (reciprocal lattice)
     0.067204301  0.000000000  0.000000000     0.166666667  0.000000000  0.000000000
     0.000000000  0.067204301  0.000000000     0.000000000  0.166666667  0.000000000
     0.000000000  0.000000000  0.100806452     0.000000000  0.000000000  0.250000000

  Length of vectors
     0.067204301  0.067204301  0.100806452

  Shift w.r.t. Gamma in fractional coordinates (k-lattice)
     0.500000000  0.500000000  0.500000000

 WARNING: IBZKPT: internal override: KBLOWUP is changed to .FALSE.
      ... skipping the blow-up phase ...

 Subroutine IBZKPT returns following result:

 Found     72 irreducible k-points:

 Following reciprocal coordinates:
            Coordinates               Weight
  0.083333  0.083333  0.125000      2.000000
  0.250000  0.083333  0.125000      2.000000
  0.416667  0.083333  0.125000      2.000000
 -0.416667  0.083333  0.125000      2.000000
 -0.250000  0.083333  0.125000      2.000000
 -0.083333  0.083333  0.125000      2.000000
  0.083333  0.250000  0.125000      2.000000
  0.250000  0.250000  0.125000      2.000000
  0.416667  0.250000  0.125000      2.000000
 -0.416667  0.250000  0.125000      2.000000
 -0.250000  0.250000  0.125000      2.000000
 -0.083333  0.250000  0.125000      2.000000
  0.083333  0.416667  0.125000      2.000000
  0.250000  0.416667  0.125000      2.000000
  0.416667  0.416667  0.125000      2.000000
 -0.416667  0.416667  0.125000      2.000000
 -0.250000  0.416667  0.125000      2.000000
 -0.083333  0.416667  0.125000      2.000000
  0.083333 -0.416667  0.125000      2.000000
  0.250000 -0.416667  0.125000      2.000000
  0.416667 -0.416667  0.125000      2.000000
 -0.416667 -0.416667  0.125000      2.000000
 -0.250000 -0.416667  0.125000      2.000000
 -0.083333 -0.416667  0.125000      2.000000
  0.083333 -0.250000  0.125000      2.000000
  0.250000 -0.250000  0.125000      2.000000
  0.416667 -0.250000  0.125000      2.000000
 -0.416667 -0.250000  0.125000      2.000000
 -0.250000 -0.250000  0.125000      2.000000
 -0.083333 -0.250000  0.125000      2.000000
  0.083333 -0.083333  0.125000      2.000000
  0.250000 -0.083333  0.125000      2.000000
  0.416667 -0.083333  0.125000      2.000000
 -0.416667 -0.083333  0.125000      2.000000
 -0.250000 -0.083333  0.125000      2.000000
 -0.083333 -0.083333  0.125000      2.000000
  0.083333  0.083333  0.375000      2.000000
  0.250000  0.083333  0.375000      2.000000
  0.416667  0.083333  0.375000      2.000000
 -0.416667  0.083333  0.375000      2.000000
 -0.250000  0.083333  0.375000      2.000000
 -0.083333  0.083333  0.375000      2.000000
  0.083333  0.250000  0.375000      2.000000
  0.250000  0.250000  0.375000      2.000000
  0.416667  0.250000  0.375000      2.000000
 -0.416667  0.250000  0.375000      2.000000
 -0.250000  0.250000  0.375000      2.000000
 -0.083333  0.250000  0.375000      2.000000
  0.083333  0.416667  0.375000      2.000000
  0.250000  0.416667  0.375000      2.000000
  0.416667  0.416667  0.375000      2.000000
 -0.416667  0.416667  0.375000      2.000000
 -0.250000  0.416667  0.375000      2.000000
 -0.083333  0.416667  0.375000      2.000000
  0.083333 -0.416667  0.375000      2.000000
  0.250000 -0.416667  0.375000      2.000000
  0.416667 -0.416667  0.375000      2.000000
 -0.416667 -0.416667  0.375000      2.000000
 -0.250000 -0.416667  0.375000      2.000000
 -0.083333 -0.416667  0.375000      2.000000
  0.083333 -0.250000  0.375000      2.000000
  0.250000 -0.250000  0.375000      2.000000
  0.416667 -0.250000  0.375000      2.000000
 -0.416667 -0.250000  0.375000      2.000000
 -0.250000 -0.250000  0.375000      2.000000
 -0.083333 -0.250000  0.375000      2.000000
  0.083333 -0.083333  0.375000      2.000000
  0.250000 -0.083333  0.375000      2.000000
  0.416667 -0.083333  0.375000      2.000000
 -0.416667 -0.083333  0.375000      2.000000
 -0.250000 -0.083333  0.375000      2.000000
 -0.083333 -0.083333  0.375000      2.000000

 Following cartesian coordinates:
            Coordinates               Weight
  0.033602  0.033602  0.050403      2.000000
  0.100806  0.033602  0.050403      2.000000
  0.168011  0.033602  0.050403      2.000000
 -0.168011  0.033602  0.050403      2.000000
 -0.100806  0.033602  0.050403      2.000000
 -0.033602  0.033602  0.050403      2.000000
  0.033602  0.100806  0.050403      2.000000
  0.100806  0.100806  0.050403      2.000000
  0.168011  0.100806  0.050403      2.000000
 -0.168011  0.100806  0.050403      2.000000
 -0.100806  0.100806  0.050403      2.000000
 -0.033602  0.100806  0.050403      2.000000
  0.033602  0.168011  0.050403      2.000000
  0.100806  0.168011  0.050403      2.000000
  0.168011  0.168011  0.050403      2.000000
 -0.168011  0.168011  0.050403      2.000000
 -0.100806  0.168011  0.050403      2.000000
 -0.033602  0.168011  0.050403      2.000000
  0.033602 -0.168011  0.050403      2.000000
  0.100806 -0.168011  0.050403      2.000000
  0.168011 -0.168011  0.050403      2.000000
 -0.168011 -0.168011  0.050403      2.000000
 -0.100806 -0.168011  0.050403      2.000000
 -0.033602 -0.168011  0.050403      2.000000
  0.033602 -0.100806  0.050403      2.000000
  0.100806 -0.100806  0.050403      2.000000
  0.168011 -0.100806  0.050403      2.000000
 -0.168011 -0.100806  0.050403      2.000000
 -0.100806 -0.100806  0.050403      2.000000
 -0.033602 -0.100806  0.050403      2.000000
  0.033602 -0.033602  0.050403      2.000000
  0.100806 -0.033602  0.050403      2.000000
  0.168011 -0.033602  0.050403      2.000000
 -0.168011 -0.033602  0.050403      2.000000
 -0.100806 -0.033602  0.050403      2.000000
 -0.033602 -0.033602  0.050403      2.000000
  0.033602  0.033602  0.151210      2.000000
  0.100806  0.033602  0.151210      2.000000
  0.168011  0.033602  0.151210      2.000000
 -0.168011  0.033602  0.151210      2.000000
 -0.100806  0.033602  0.151210      2.000000
 -0.033602  0.033602  0.151210      2.000000
  0.033602  0.100806  0.151210      2.000000
  0.100806  0.100806  0.151210      2.000000
  0.168011  0.100806  0.151210      2.000000
 -0.168011  0.100806  0.151210      2.000000
 -0.100806  0.100806  0.151210      2.000000
 -0.033602  0.100806  0.151210      2.000000
  0.033602  0.168011  0.151210      2.000000
  0.100806  0.168011  0.151210      2.000000
  0.168011  0.168011  0.151210      2.000000
 -0.168011  0.168011  0.151210      2.000000
 -0.100806  0.168011  0.151210      2.000000
 -0.033602  0.168011  0.151210      2.000000
  0.033602 -0.168011  0.151210      2.000000
  0.100806 -0.168011  0.151210      2.000000
  0.168011 -0.168011  0.151210      2.000000
 -0.168011 -0.168011  0.151210      2.000000
 -0.100806 -0.168011  0.151210      2.000000
 -0.033602 -0.168011  0.151210      2.000000
  0.033602 -0.100806  0.151210      2.000000
  0.100806 -0.100806  0.151210      2.000000
  0.168011 -0.100806  0.151210      2.000000
 -0.168011 -0.100806  0.151210      2.000000
 -0.100806 -0.100806  0.151210      2.000000
 -0.033602 -0.100806  0.151210      2.000000
  0.033602 -0.033602  0.151210      2.000000
  0.100806 -0.033602  0.151210      2.000000
  0.168011 -0.033602  0.151210      2.000000
 -0.168011 -0.033602  0.151210      2.000000
 -0.100806 -0.033602  0.151210      2.000000
 -0.033602 -0.033602  0.151210      2.000000

 SYSTEM =  unknown system
 POSCAR =  Cr bulk bcc

 Startparameter for this run:
   NWRITE =      2    write-flag & timer
   PREC   = accura    normal or accurate (medium, high low for compatibility)
   ISTART =      0    job   : 0-new  1-cont  2-samecut
   ICHARG =      2    charge: 1-file 2-atom 10-const
   ISPIN  =      2    spin polarized calculation?
   LNONCOLLINEAR =      F non collinear calculations
   LSORBIT =      F    spin-orbit coupling
   INIWAV =      1    electr: 0-lowe 1-rand  2-diag
   LASPH  =      F    aspherical Exc in radial PAW
 Electronic Relaxation 1
   ENCUT  =  500.0 eV  36.75 Ry    6.06 a.u.   4.52  4.52  4.52*2*pi/ulx,y,z
   ENINI  =  500.0     initial cutoff
   ENAUG  =  402.1 eV  augmentation charge cutoff
   NELM   =     60;   NELMIN=  2; NELMDL= -5     # of ELM steps
   EDIFF  = 0.1E-05   stopping-criterion for ELM
   LREAL  =      F    real-space projection
[...]
   0.25000000 -0.25000000  0.37500000       0.014
   0.41666667 -0.25000000  0.37500000       0.014
  -0.41666667 -0.25000000  0.37500000       0.014
  -0.25000000 -0.25000000  0.37500000       0.014
  -0.08333333 -0.25000000  0.37500000       0.014
   0.08333333 -0.08333333  0.37500000       0.014
   0.25000000 -0.08333333  0.37500000       0.014
   0.41666667 -0.08333333  0.37500000       0.014
  -0.41666667 -0.08333333  0.37500000       0.014
  -0.25000000 -0.08333333  0.37500000       0.014
  -0.08333333 -0.08333333  0.37500000       0.014

 position of ions in fractional coordinates (direct lattice)
   0.00000000  0.00000000  0.00000000

 position of ions in cartesian coordinates  (Angst):
   0.00000000  0.00000000  0.00000000

 k-point     1 :   0.0833 0.0833 0.1250  plane waves:     393
 k-point     2 :   0.2500 0.0833 0.1250  plane waves:     396
 k-point     3 :   0.4167 0.0833 0.1250  plane waves:     387
 k-point     4 :  -0.4167 0.0833 0.1250  plane waves:     387
 k-point     5 :  -0.2500 0.0833 0.1250  plane waves:     396
 k-point     6 :  -0.0833 0.0833 0.1250  plane waves:     393
 k-point     7 :   0.0833 0.2500 0.1250  plane waves:     396
 k-point     8 :   0.2500 0.2500 0.1250  plane waves:     396
 k-point     9 :   0.4167 0.2500 0.1250  plane waves:     384
 k-point    10 :  -0.4167 0.2500 0.1250  plane waves:     384
 k-point    11 :  -0.2500 0.2500 0.1250  plane waves:     396
 k-point    12 :  -0.0833 0.2500 0.1250  plane waves:     396
 k-point    13 :   0.0833 0.4167 0.1250  plane waves:     387
 k-point    14 :   0.2500 0.4167 0.1250  plane waves:     384
 k-point    15 :   0.4167 0.4167 0.1250  plane waves:     383
 k-point    16 :  -0.4167 0.4167 0.1250  plane waves:     383
 k-point    17 :  -0.2500 0.4167 0.1250  plane waves:     384
 k-point    18 :  -0.0833 0.4167 0.1250  plane waves:     387
 k-point    19 :   0.0833-0.4167 0.1250  plane waves:     387
 k-point    20 :   0.2500-0.4167 0.1250  plane waves:     384
 k-point    21 :   0.4167-0.4167 0.1250  plane waves:     383
 k-point    22 :  -0.4167-0.4167 0.1250  plane waves:     383
 k-point    23 :  -0.2500-0.4167 0.1250  plane waves:     384
 k-point    24 :  -0.0833-0.4167 0.1250  plane waves:     387
 k-point    25 :   0.0833-0.2500 0.1250  plane waves:     396
 k-point    26 :   0.2500-0.2500 0.1250  plane waves:     396
 k-point    27 :   0.4167-0.2500 0.1250  plane waves:     384
 k-point    28 :  -0.4167-0.2500 0.1250  plane waves:     384
 k-point    29 :  -0.2500-0.2500 0.1250  plane waves:     396
 k-point    30 :  -0.0833-0.2500 0.1250  plane waves:     396
 k-point    31 :   0.0833-0.0833 0.1250  plane waves:     393
 k-point    32 :   0.2500-0.0833 0.1250  plane waves:     396
 k-point    33 :   0.4167-0.0833 0.1250  plane waves:     387
 k-point    34 :  -0.4167-0.0833 0.1250  plane waves:     387
 k-point    35 :  -0.2500-0.0833 0.1250  plane waves:     396
 k-point    36 :  -0.0833-0.0833 0.1250  plane waves:     393
 k-point    37 :   0.0833 0.0833 0.3750  plane waves:     387
 k-point    38 :   0.2500 0.0833 0.3750  plane waves:     385
 k-point    39 :   0.4167 0.0833 0.3750  plane waves:     381
 k-point    40 :  -0.4167 0.0833 0.3750  plane waves:     381
 k-point    41 :  -0.2500 0.0833 0.3750  plane waves:     385
 k-point    42 :  -0.0833 0.0833 0.3750  plane waves:     387
 k-point    43 :   0.0833 0.2500 0.3750  plane waves:     385
 k-point    44 :   0.2500 0.2500 0.3750  plane waves:     382
 k-point    45 :   0.4167 0.2500 0.3750  plane waves:     386
 k-point    46 :  -0.4167 0.2500 0.3750  plane waves:     386
 k-point    47 :  -0.2500 0.2500 0.3750  plane waves:     382
 k-point    48 :  -0.0833 0.2500 0.3750  plane waves:     385
 k-point    49 :   0.0833 0.4167 0.3750  plane waves:     381
 k-point    50 :   0.2500 0.4167 0.3750  plane waves:     386
 k-point    51 :   0.4167 0.4167 0.3750  plane waves:     388
 k-point    52 :  -0.4167 0.4167 0.3750  plane waves:     388
 k-point    53 :  -0.2500 0.4167 0.3750  plane waves:     386
 k-point    54 :  -0.0833 0.4167 0.3750  plane waves:     381
 k-point    55 :   0.0833-0.4167 0.3750  plane waves:     381
 k-point    56 :   0.2500-0.4167 0.3750  plane waves:     386
 k-point    57 :   0.4167-0.4167 0.3750  plane waves:     388
 k-point    58 :  -0.4167-0.4167 0.3750  plane waves:     388
 k-point    59 :  -0.2500-0.4167 0.3750  plane waves:     386
 k-point    60 :  -0.0833-0.4167 0.3750  plane waves:     381
 k-point    61 :   0.0833-0.2500 0.3750  plane waves:     385
 k-point    62 :   0.2500-0.2500 0.3750  plane waves:     382
 k-point    63 :   0.4167-0.2500 0.3750  plane waves:     386
 k-point    64 :  -0.4167-0.2500 0.3750  plane waves:     386
 k-point    65 :  -0.2500-0.2500 0.3750  plane waves:     382
 k-point    66 :  -0.0833-0.2500 0.3750  plane waves:     385
 k-point    67 :   0.0833-0.0833 0.3750  plane waves:     387
 k-point    68 :   0.2500-0.0833 0.3750  plane waves:     385
 k-point    69 :   0.4167-0.0833 0.3750  plane waves:     381
 k-point    70 :  -0.4167-0.0833 0.3750  plane waves:     381
 k-point    71 :  -0.2500-0.0833 0.3750  plane waves:     385
 k-point    72 :  -0.0833-0.0833 0.3750  plane waves:     387

 maximum and minimum number of plane-waves per node :       396      381

 maximum number of plane-waves:       396
 maximum index in each direction:
   IXMAX=    4   IYMAX=    4   IZMAX=    4
   IXMIN=   -4   IYMIN=   -4   IZMIN=   -4

 serial   3D FFT for wavefunctions
 parallel 3D FFT for charge:
    minimum data exchange during FFTs selected (reduces bandwidth)

 Broyden mixing: mesh for mixing (old mesh)
   NGX =  9   NGY =  9   NGZ =  9
  (NGX  = 36   NGY  = 36   NGZ  = 36)
  gives a total of    729 points

 initial charge density was supplied:
 charge density of overlapping atoms calculated
 number of electron       6.0000000 magnetization       5.0000000
 keeping initial charge density in first step

 Maximum index for augmentation-charges          861 (set IRDMAX)

 First call to EWALD:  gamma=   0.715
 Maximum number of real-space cells   3x   3x   3
 Maximum number of reciprocal cells   3x   3x   3

--------------------------------------- Ionic step        1  -------------------------------------------

--------------------------------------- Iteration      1(   1)  ---------------------------------------

 eigenvalue-minimisations  : 15624
 total energy-change (2. order) :-0.6295041E+01  (-0.2945613E+03)
 number of electron       6.0000000 magnetization       5.0000000
 augmentation part        6.0000000 magnetization       5.0000000

 Free energy of the ion-electron system (eV)
  alpha Z        PSCENC =        27.09645045
  Ewald energy   TEWEN  =      -296.53896782
  -Hartree energ DENC   =       -43.91947793
  -exchange      EXHF   =         0.00000000
  -V(xc)+E(xc)   XCENC  =       -16.34484621
  PAW double counting   =       274.56471105     -255.13504988
  entropy T*S    EENTRO =        -0.00439717
  eigenvalues    EBANDS =        27.10184443
  atomic energy  EATOM  =       276.88469247
  Solvation  Ediel_sol  =         0.00000000
  free energy    TOTEN  =        -6.29504061 eV

  energy without entropy =       -6.29064344  energy(sigma->0) =       -6.29284202

[...]

 Broyden mixing:
  rms(total) = 0.98946E+00    rms(broyden)= 0.98946E+00
  rms(prec ) = 0.19361E+01
  weight for this iteration     100.00

[...]

 eigenvalues of (default mixing * dielectric matrix)
  average eigenvalue GAMMA=   1.3055
  1.3055

[...]

 Broyden mixing:
  rms(total) = 0.81310E-03    rms(broyden)= 0.81310E-03
  rms(prec ) = 0.12141E-02
  weight for this iteration     100.00

 eigenvalues of (default mixing * dielectric matrix)
  average eigenvalue GAMMA=   1.1885
  2.9263  1.8022  1.8022  1.4010  1.4010  0.9813  0.6624  0.6624  0.8363  0.6245
  0.6245  0.5380

[...]

--------------------------------------- Iteration      1(  18)  ---------------------------------------

 eigenvalue-minimisations  : 13272
 total energy-change (2. order) :-0.6075669E-07  (-0.1004249E-06)
 number of electron       5.9999999 magnetization       0.2359866
 augmentation part        2.5550649 magnetization       0.1647813

 Free energy of the ion-electron system (eV)
  alpha Z        PSCENC =        27.09645045
  Ewald energy   TEWEN  =      -296.53896782
  -Hartree energ DENC   =       -34.26951661
  -exchange      EXHF   =         0.00000000
  -V(xc)+E(xc)   XCENC  =       -20.01220463
  PAW double counting   =       345.14057218     -325.10866525
  entropy T*S    EENTRO =        -0.00234089
  eigenvalues    EBANDS =        18.55315644
  atomic energy  EATOM  =       276.88469247
  Solvation  Ediel_sol  =         0.00000000
  free energy    TOTEN  =        -8.25682366 eV

  energy without entropy =       -8.25448277  energy(sigma->0) =       -8.25565322

 average (electrostatic) potential at core
  the test charge radii are     1.1394
  (the norm of the test charge is              1.0000)
       1 -43.9946

 E-fermi :   5.0183     XC(G=0): -11.6264     alpha+bet :-12.4188

 val. band max:        4.9050330031   @ k =  -0.4167  -0.4167   0.1250
 cond. band min:       5.0283278587   @ k =  -0.4167  -0.2500   0.1250
 fundamental gap:      0.1232948556
 Fermi energy:         5.0182848861

 spin component 1

 k-point     1 :       0.0833    0.0833    0.1250
  band No.  band energies     occupation
      1      -0.9130      1.00000
      2       2.6348      1.00000
      3       2.7614      1.00000
      4       6.3060      0.00000
      5       6.3258      0.00000
      6       6.5313      0.00000
      7      19.6785      0.00000
      8      21.2587      0.00000
      9      21.6645      0.00000
     10      28.5820      0.00000
     11      29.5785      0.00000
     12      33.2011      0.00000
     13      36.4065      0.00000
     14      37.2239      0.00000
     15      40.6992      0.00000
     16      43.1287      0.00000
     17      46.2519      0.00000
     18      47.8217      0.00000
     19      48.3047      0.00000
     20      49.3047      0.00000
     21      51.2488      0.00000
     22      52.3104      0.00000
     23      52.6289      0.00000
     24      54.2665      0.00000
     25      58.0497      0.00000
     26      59.0018      0.00000
     27      59.5192      0.00000
     28      59.6706      0.00000
     29      65.6800      0.00000
     30      69.3888      0.00000
     31      69.8620      0.00000
     32      71.4181      0.00000
     33      75.0179      0.00000
     34      76.7989      0.00000
     35      78.7514      0.00000
     36      88.3598      0.00000
     37      89.8849      0.00000
     38      91.9697      0.00000
     39      96.3030      0.00000
     40      97.7234      0.00000
     41      98.0555      0.00000
     42     100.5163      0.00000

[...]

 k-point    72 :      -0.0833   -0.0833    0.3750
  band No.  band energies     occupation
      1       1.6161      1.00000
      2       3.0630      1.00000
      3       3.8059      1.00000
      4       5.2096      0.00000
      5       5.8736      0.00000
      6       6.6438      0.00000
      7      12.2181      0.00000
      8      23.6951      0.00000
      9      24.6865      0.00000
     10      28.2268      0.00000
     11      30.0209      0.00000
     12      32.4578      0.00000
     13      33.3956      0.00000
     14      36.4696      0.00000
     15      40.2806      0.00000
     16      42.9732      0.00000
     17      45.2002      0.00000
     18      49.0297      0.00000
     19      49.4541      0.00000
     20      50.1054      0.00000
     21      52.4228      0.00000
     22      52.5512      0.00000
     23      55.0636      0.00000
     24      57.1206      0.00000
     25      57.8783      0.00000
     26      59.7849      0.00000
     27      62.0021      0.00000
     28      62.5714      0.00000
     29      62.6421      0.00000
     30      69.6824      0.00000
     31      71.6000      0.00000
     32      73.9389      0.00000
     33      78.1568      0.00000
     34      79.3727      0.00000
     35      84.5036      0.00000
     36      84.7356      0.00000
     37      85.1507      0.00000
     38      87.2480      0.00000
     39      88.2828      0.00000
     40      93.5826      0.00000
     41      94.2559      0.00000
     42      96.2375      0.00000
 Fermi energy:         5.0182848861

 spin component 2

[...]

 k-point    72 :      -0.0833   -0.0833    0.3750
  band No.  band energies     occupation
      1       1.6864      1.00000
      2       3.2532      1.00000
      3       3.9301      1.00000
      4       5.5011      0.00000
      5       6.1172      0.00000
      6       6.8312      0.00000
      7      12.3290      0.00000
      8      23.7931      0.00000
      9      24.7228      0.00000
     10      28.3143      0.00000
     11      30.0494      0.00000
     12      32.5608      0.00000
     13      33.4426      0.00000
     14      36.5622      0.00000
     15      40.3293      0.00000
     16      43.0461      0.00000
     17      45.2792      0.00000
     18      49.1982      0.00000
     19      49.6526      0.00000
     20      50.1840      0.00000
     21      52.5679      0.00000
     22      52.8092      0.00000
     23      55.3080      0.00000
     24      57.3656      0.00000
     25      57.9684      0.00000
     26      59.9252      0.00000
     27      62.1429      0.00000
     28      62.6643      0.00000
     29      62.7697      0.00000
     30      69.7822      0.00000
     31      71.7026      0.00000
     32      74.0042      0.00000
     33      78.2588      0.00000
     34      79.4669      0.00000
     35      84.5979      0.00000
     36      84.8422      0.00000
     37      85.2013      0.00000
     38      87.3341      0.00000
     39      88.3633      0.00000
     40      93.6353      0.00000
     41      94.3200      0.00000
     42      96.2972      0.00000

 soft charge-density along one line, spin component           1
         0         1         2         3         4         5         6         7         8         9
 total charge-density along one line

 soft charge-density along one line, spin component           2
         0         1         2         3         4         5         6         7         8         9
 total charge-density along one line

------------------------ aborting loop because EDIFF is reached ----------------------------------------

  FORCE on cell =-STRESS in cart. coord.  units (eV):
  Direction    XX          YY          ZZ          XY          YZ          ZX
  Alpha Z    27.09645    27.09645    27.09645
  Ewald     -98.84632   -98.84632   -98.84632    -0.00000     0.00000     0.00000
  Hartree    11.49584    11.49584    11.28024     0.00000    -0.00000    -0.00000
  E(xc)     -25.44543   -25.44543   -25.44144    -0.00000    -0.00000    -0.00000
  Local      17.57721    17.57721    18.19352    -0.00000     0.00000     0.00000
  n-local   -11.38611   -11.38611   -11.83870     0.00000    -0.00000    -0.00000
  augment    28.01763    28.01763    28.04986    -0.00000    -0.00000     0.00000
  Kinetic    49.13445    49.13445    49.36716     0.00000    -0.00000     0.00000
  Fock        0.00000     0.00000     0.00000     0.00000     0.00000     0.00000
  Total      -2.35628    -2.35628    -2.13923     0.00000    -0.00000     0.00000
  in kB    -247.50361  -247.50361  -224.70475     0.00000    -0.00000     0.00000

 VOLUME and BASIS-vectors are now :
  energy-cutoff  :      500.00
  volume of cell :       15.25
      direct lattice vectors                 reciprocal lattice vectors
     2.480000000  0.000000000  0.000000000     0.403225806  0.000000000  0.000000000
     0.000000000  2.480000000  0.000000000     0.000000000  0.403225806  0.000000000
     0.000000000  0.000000000  2.480000000     0.000000000  0.000000000  0.403225806

  length of vectors
     2.480000000  2.480000000  2.480000000     0.403225806  0.403225806  0.403225806

 FORCES acting on ions
    electron-ion (+dipol)            ewald-force                    non-local-force                 convergence-correction
   -.598E-11 0.127E-11 -.612E-10   -.510E-15 0.532E-15 0.370E-16   -.444E-09 0.486E-09 -.205E-09   -.700E-10 0.107E-09 0.701E-10
   -.598E-11 0.127E-11 -.612E-10   -.510E-15 0.532E-15 0.370E-16   -.444E-09 0.486E-09 -.205E-09   -.700E-10 0.107E-09 0.701E-10

 POSITION                                       TOTAL-FORCE (eV/Angst)
      0.00000      0.00000      0.00000        -0.000000      0.000000     -0.000000
    total drift:                               -0.000000      0.000000     -0.000000

  FREE ENERGIE OF THE ION-ELECTRON SYSTEM (eV)
  free  energy   TOTEN  =        -8.25682366 eV

  energy  without entropy=       -8.25448277  energy(sigma->0) =       -8.25565322