 vasp.6.5.1 10Mar25 (build Apr 08 2025 20:07:02) complex

 executed on             LinuxIFC date 2025.06.10  22:16:33

 INCAR:
   SYSTEM = CrCl3 KPOINT Test
   PREC = Accurate
   ISMEAR = 0
   SIGMA = 0.05
   ENCUT = 520
   ISPIN = 2
   MAGMOM = 2*3.0 6*0.6
   EDIFF = 1E-6
   IBRION = -1
   NSW = 0
   LWAVE = .FALSE.
   LCHARG = .FALSE.

 POTCAR:    PAW_PBE Cr 06Sep2000
 POTCAR:    PAW_PBE Cl 06Sep2000
|           W    W    AA    RRRRR   N    N  II  N    N   GGGG   !!!           |
|           W    W   A  A   R    R  NN   N  II  NN   N  G    G  !!!           |
|           W    W  A    A  R    R  N N  N  II  N N  N  G       !!!           |
|           W WW W  AAAAAA  RRRRR   N  N N  II  N  N N  G  GGG   !            |
|           WW  WW  A    A  R   R   N   NN  II  N   NN  G    G                |
|           W    W  A    A  R    R  N    N  II  N    N   GGGG   !!!           |
|     For optimal performance we recommend to set                             |
|       NCORE = 2 up to number-of-cores-per-socket                            |
|     This setting can greatly improve the performance of VASP for DFT.       |
|     The default, NCORE=1 might be grossly inefficient on modern             |
|     multi-core architectures or massively parallel machines. Do your        |
|     Unfortunately you need to use the default for GW and RPA                |
|     calculations (for HF NCORE is supported but not extensively tested      |
|     yet).                                                                   |

   TITEL  = PAW_PBE Cr 06Sep2000
   POMASS =   51.996; ZVAL   =    6.000    mass and valenz
   ENMAX  =  227.080; ENMIN  =  170.310 eV

   TITEL  = PAW_PBE Cl 06Sep2000
   POMASS =   35.453; ZVAL   =    7.000    mass and valenz
   ENMAX  =  262.472; ENMIN  =  196.854 eV

  PAW_PBE Cr 06Sep2000                  :
  PAW_PBE Cl 06Sep2000                  :

 POSCAR:
|           W    W    AA    RRRRR   N    N  II  N    N   GGGG   !!!           |
|           W    W   A  A   R    R  NN   N  II  NN   N  G    G  !!!           |
|           W    W  A    A  R    R  N N  N  II  N N  N  G       !!!           |
|           W WW W  AAAAAA  RRRRR   N  N N  II  N  N N  G  GGG   !            |
|           WW  WW  A    A  R   R   N   NN  II  N   NN  G    G                |
|           W    W  A    A  R    R  N    N  II  N    N   GGGG   !!!           |
|     Inconsistent Bravais lattice types found for crystalline and            |
|     reciprocal lattice:                                                     |
|        Crystalline: base-centered monoclinic                                |
|        Reciprocal : triclinic                                               |
|                    (instead of base-centered monoclinic)                    |
|     In most cases this is due to inaccuracies in the specification of       |
|     the crytalline lattice vectors.                                         |
|     Suggested SOLUTIONS:                                                    |
|      ) Refine the lattice parameters of your structure,                     |
|      ) and/or try changing SYMPREC.                                         |

  positions in cartesian coordinates

 exchange-correlation table for PE
   RHO(1)=    0.500       N(1)  =     2000
   RHO(2)=  100.500       N(2)  =     4000

 ion  position               nearest neighbor table
   1  0.667  0.333  0.500-   4 2.40   6 2.41   8 2.41   3 2.41   5 2.41   7 2.41
   2  1.000  0.000  0.500-   6 2.40   4 2.41   7 2.41   8 2.41   5 2.41   3 2.41
   3  0.333  0.024  0.560-   1 2.41   2 2.41
   4  0.976  0.309  0.560-   1 2.40   2 2.41
   5  0.691  0.666  0.560-   2 2.41   1 2.41
   6  0.691  0.024  0.440-   2 2.40   1 2.41
   7  0.334  0.309  0.440-   2 2.41   1 2.41
   8  0.976  0.667  0.440-   2 2.41   1 2.41

  LATTYP: Found a base centered monoclinic cell.
 ALAT       =    46.0522173584
 B/A-ratio  =     0.2315140720
 C/A-ratio  =     0.4954947411
 COS(beta)  =    -0.9910458493

  Lattice vectors:

 A1 = (  -6.1563980000,  -0.0015340000, -22.8192420000)
 A2 = (   3.0771110000,  -5.3321000000, -22.8193060000)
 A3 = (   0.0023100000,   0.0042790000,  22.8186310000)

Analysis of symmetry for initial positions (statically):
 Subroutine PRICEL returns:
 Original cell was already a primitive cell.

 Routine SETGRP: Setting up the symmetry group for a
 base centered monoclinic supercell.

 Subroutine GETGRP returns: Found  1 space group operations
 (whereof  1 operations were pure point group operations)
 out of a pool of  4 trial point group operations.

The static configuration has the point symmetry C_1 .

Analysis of symmetry for dynamics (positions and initial velocities):
 Subroutine PRICEL returns:
 Original cell was already a primitive cell.

[...]

The dynamic configuration has the point symmetry C_1 .

Analysis of structural, dynamic, and magnetic symmetry:
 Subroutine PRICEL returns:
 Original cell was already a primitive cell.

 Routine SETGRP: Setting up the symmetry group for a
 base centered monoclinic supercell.

 Subroutine GETGRP returns: Found  1 space group operations
 (whereof  1 operations were pure point group operations)
 out of a pool of  4 trial point group operations.

The overall configuration has the point symmetry C_1 .

 Subroutine INISYM returns: Found  1 space group operations
 (whereof  1 operations are pure point group operations),
 and found     1 'primitive' translations

                                     Primitive cell

  volume of cell :     747.9816

  direct lattice vectors                    reciprocal lattice vectors
     6.154088000 -0.002745000  0.000611000     0.162535521  0.093943719 -0.000034071
    -3.079421000  5.327821000  0.000675000     0.000083745  0.187742402 -0.000035214
     0.002310000  0.004279000 22.818631000    -0.000004355 -0.000008069  0.043823840

  length of vectors
     6.154088643  6.153739575 22.818631518     0.187731774  0.187742424  0.043823841

  position of ions in fractional coordinates (direct lattice)
     0.666736594  0.333271515  0.500001034
     0.999932001  0.000057150  0.499996780
     0.333036773  0.024315239  0.559914124
     0.976157585  0.309498728  0.559709996
     0.691010203  0.666388278  0.559921327
     0.690524329  0.023819428  0.440290280
     0.333612637  0.309016604  0.440085142
     0.975657232  0.666961176  0.440079793

  ion indices of the primitive-cell ions
   primitive index   ion index
                 1           1
                 2           2
                 3           3
                 4           4
                 5           5
                 6           6
                 7           7
                 8           8

 KPOINTS: Automatic mesh

Automatic generation of k-mesh.
 Grid dimensions read from file:
 generate k-points for:    4    4    2

 Generating k-lattice:

  Cartesian coordinates                     Fractional coordinates (reciprocal lattice)
     0.040633880  0.023485930 -0.000008518     0.250000000 -0.000000000 -0.000000000
     0.000020936  0.046935600 -0.000008804    -0.000000000  0.250000000  0.000000000
    -0.000002177 -0.000004035  0.021911920     0.000000000 -0.000000000  0.500000000

  Length of vectors
     0.046932943  0.046935606  0.021911921

  Shift w.r.t. Gamma in fractional coordinates (k-lattice)
     0.500000000  0.500000000  0.500000000

 Subroutine IBZKPT returns following result:

 Found     16 irreducible k-points:

 Following reciprocal coordinates:
            Coordinates               Weight
  0.125000  0.125000  0.250000      2.000000
  0.375000  0.125000  0.250000      2.000000
 -0.375000  0.125000  0.250000      2.000000
 -0.125000  0.125000  0.250000      2.000000
  0.125000  0.375000  0.250000      2.000000
  0.375000  0.375000  0.250000      2.000000
 -0.375000  0.375000  0.250000      2.000000
 -0.125000  0.375000  0.250000      2.000000
  0.125000 -0.375000  0.250000      2.000000
  0.375000 -0.375000  0.250000      2.000000
 -0.375000 -0.375000  0.250000      2.000000
 -0.125000 -0.375000  0.250000      2.000000
  0.125000 -0.125000  0.250000      2.000000
  0.375000 -0.125000  0.250000      2.000000
 -0.375000 -0.125000  0.250000      2.000000
 -0.125000 -0.125000  0.250000      2.000000

 Following cartesian coordinates:
            Coordinates               Weight
  0.020326  0.035209  0.010947      2.000000
  0.060960  0.058695  0.010939      2.000000
 -0.060941 -0.011763  0.010964      2.000000
 -0.020308  0.011723  0.010956      2.000000
  0.020347  0.082144  0.010938      2.000000
  0.060981  0.105630  0.010930      2.000000
 -0.060921  0.035172  0.010956      2.000000
 -0.020287  0.058658  0.010947      2.000000
  0.020284 -0.058662  0.010965      2.000000
  0.060918 -0.035177  0.010956      2.000000
 -0.060983 -0.105634  0.010982      2.000000
 -0.020349 -0.082148  0.010973      2.000000
  0.020305 -0.011727  0.010956      2.000000
  0.060939  0.011759  0.010948      2.000000
 -0.060962 -0.058699  0.010973      2.000000
 -0.020328 -0.035213  0.010965      2.000000

 SYSTEM =  CrCl3 KPOINT Test
 POSCAR =

 Startparameter for this run:
   NWRITE =      2    write-flag & timer
   PREC   = accura    normal or accurate (medium, high low for compatibility)
   ISTART =      0    job   : 0-new  1-cont  2-samecut
   ICHARG =      2    charge: 1-file 2-atom 10-const
   ISPIN  =      2    spin polarized calculation?
   LNONCOLLINEAR =      F non collinear calculations
   LSORBIT =      F    spin-orbit coupling
   INIWAV =      1    electr: 0-lowe 1-rand  2-diag
   LASPH  =      F    aspherical Exc in radial PAW
 Electronic Relaxation 1
   ENCUT  =  520.0 eV  38.22 Ry    6.18 a.u.  11.44 11.44 42.43*2*pi/ulx,y,z
   ENINI  =  520.0     initial cutoff
   ENAUG  =  402.1 eV  augmentation charge cutoff
   NELM   =     60;   NELMIN=  2; NELMDL= -5     # of ELM steps
   EDIFF  = 0.1E-05   stopping-criterion for ELM
   LREAL  =      F    real-space projection
   NLSPLINE    = F    spline interpolate recip. space projectors
   LCOMPAT=      F    compatible to vasp.4.4
   GGA_COMPAT  = T    GGA compatible to vasp.4.4-vasp.4.6
   LMAXPAW     = -100 max onsite density
   LMAXMIX     =    2 max onsite mixed and CHGCAR
   VOSKOWN=      0    Vosko Wilk Nusair interpolation
   ROPT   =    0.00000   0.00000
 Ionic relaxation
   EDIFFG = 0.1E-04   stopping-criterion for IOM
   NSW    =      0    number of steps for IOM
   NBLOCK =      1;   KBLOCK =      1    inner block; outer block
   IBRION =     -1    ionic relax: 0-MD 1-quasi-New 2-CG
   NFREE  =      0    steps in history (QN), initial steepest desc. (CG)
   ISIF   =      2    stress and relaxation
   IWAVPR =     10    prediction:  0-non 1-charg 2-wave 3-comb
   ISYM   =      2    0-nonsym 1-usesym 2-fastsym
   LCORR  =      T    Harris-Foulkes like correction to forces

   POTIM  = 0.5000    time-step for ionic-motion
   TEIN   =    0.0    initial temperature
   TEBEG  =    0.0;   TEEND  =   0.0 temperature during run
   SMASS  =  -3.00    Nose mass-parameter (am)
   estimated Nose-frequenzy (Omega)   =  0.10E-29 period in steps = 0.13E+47 mass=  -0.865E-27a.u.
   SCALEE = 1.0000    scale energy and forces
[...]
  -0.02028662  0.05865842  0.01094701       0.062
   0.02028445 -0.05866245  0.01096491       0.062
   0.06091833 -0.03517652  0.01095639       0.062
  -0.06098331 -0.10563431  0.01098194       0.062
  -0.02034943 -0.08214838  0.01097342       0.062
   0.02030538 -0.01172685  0.01095610       0.062
   0.06093926  0.01175908  0.01094759       0.062
  -0.06096238 -0.05869871  0.01097314       0.062
  -0.02032850 -0.03521278  0.01096462       0.062

 k-points in reciprocal lattice and weights: Automatic mesh
   0.12500000  0.12500000  0.25000000       0.062
   0.37500000  0.12500000  0.25000000       0.062
  -0.37500000  0.12500000  0.25000000       0.062
  -0.12500000  0.12500000  0.25000000       0.062
   0.12500000  0.37500000  0.25000000       0.062
   0.37500000  0.37500000  0.25000000       0.062
  -0.37500000  0.37500000  0.25000000       0.062
  -0.12500000  0.37500000  0.25000000       0.062
   0.12500000 -0.37500000  0.25000000       0.062
   0.37500000 -0.37500000  0.25000000       0.062
  -0.37500000 -0.37500000  0.25000000       0.062
  -0.12500000 -0.37500000  0.25000000       0.062
   0.12500000 -0.12500000  0.25000000       0.062
   0.37500000 -0.12500000  0.25000000       0.062
  -0.37500000 -0.12500000  0.25000000       0.062
  -0.12500000 -0.12500000  0.25000000       0.062

 position of ions in fractional coordinates (direct lattice)
   0.66673659  0.33327152  0.50000103
   0.99993200  0.00005715  0.49999678
   0.33303677  0.02431524  0.55991412
   0.97615759  0.30949873  0.55971000
   0.69101020  0.66638828  0.55992133
   0.69052433  0.02381943  0.44029028
   0.33361264  0.30901660  0.44008514
   0.97565723  0.66696118  0.44007979

 position of ions in cartesian coordinates  (Angst):
   3.07802737  1.77592029 11.40997144
   6.15464853 -0.00030084 11.40985301
   1.97595415  0.13102893 12.77669369
   5.05557573  1.64866927 12.77262120
   2.20174096  3.55089654 12.77751016
   4.17721451  0.12689416 10.04725942
   1.10250590  1.64735251 10.04255288
   3.95144280  3.55265468 10.04306474

 k-point     1 :   0.1250 0.1250 0.2500  plane waves:   20170
 k-point     2 :   0.3750 0.1250 0.2500  plane waves:   20123
 k-point     3 :  -0.3750 0.1250 0.2500  plane waves:   20156
 k-point     4 :  -0.1250 0.1250 0.2500  plane waves:   20184
 k-point     5 :   0.1250 0.3750 0.2500  plane waves:   20123
 k-point     6 :   0.3750 0.3750 0.2500  plane waves:   20107
 k-point     7 :  -0.3750 0.3750 0.2500  plane waves:   20114
 k-point     8 :  -0.1250 0.3750 0.2500  plane waves:   20156
 k-point     9 :   0.1250-0.3750 0.2500  plane waves:   20156
 k-point    10 :   0.3750-0.3750 0.2500  plane waves:   20116
 k-point    11 :  -0.3750-0.3750 0.2500  plane waves:   20105
 k-point    12 :  -0.1250-0.3750 0.2500  plane waves:   20123
 k-point    13 :   0.1250-0.1250 0.2500  plane waves:   20184
 k-point    14 :   0.3750-0.1250 0.2500  plane waves:   20157
 k-point    15 :  -0.3750-0.1250 0.2500  plane waves:   20122
 k-point    16 :  -0.1250-0.1250 0.2500  plane waves:   20166

 maximum and minimum number of plane-waves per node :     20184    20105

 maximum number of plane-waves:     20184
 maximum index in each direction:
   IXMAX=   11   IYMAX=   11   IZMAX=   42
   IXMIN=  -11   IYMIN=  -11   IZMIN=  -42

 serial   3D FFT for wavefunctions
 parallel 3D FFT for charge:
    minimum data exchange during FFTs selected (reduces bandwidth)

 Broyden mixing: mesh for mixing (old mesh)
   NGX = 23   NGY = 23   NGZ = 85
  (NGX  = 96   NGY  = 96   NGZ  =360)
  gives a total of  44965 points

 initial charge density was supplied:
 charge density of overlapping atoms calculated
 number of electron      54.0000000 magnetization       9.6000000
 keeping initial charge density in first step

 Maximum index for augmentation-charges         1670 (set IRDMAX)

 First call to EWALD:  gamma=   0.195
 Maximum number of real-space cells   4x   4x   1
 Maximum number of reciprocal cells   2x   2x   6

--------------------------------------- Ionic step        1  -------------------------------------------

--------------------------------------- Iteration      1(   1)  ---------------------------------------

 eigenvalue-minimisations  :  2688
 total energy-change (2. order) : 0.4339796E+03  (-0.1846667E+04)
 number of electron      54.0000000 magnetization       9.6000000
 augmentation part       54.0000000 magnetization       9.6000000

 Free energy of the ion-electron system (eV)
  alpha Z        PSCENC =        23.01523305
  Ewald energy   TEWEN  =      7534.95570762
  -Hartree energ DENC   =    -10194.69169658
  -exchange      EXHF   =         0.00000000
  -V(xc)+E(xc)   XCENC  =        82.16018143
  PAW double counting   =      2504.62862977    -2465.96035111
  entropy T*S    EENTRO =        -0.00541586
  eigenvalues    EBANDS =       -62.23387749
  atomic energy  EATOM  =      3012.11119029
  Solvation  Ediel_sol  =         0.00000000
  free energy    TOTEN  =       433.97960111 eV

  energy without entropy =      433.98501698  energy(sigma->0) =      433.98230904

[...]

 eigenvalue-minimisations  :  4578
 total energy-change (2. order) :-0.4312783E+03  (-0.4297342E+03)
 number of electron      54.0000000 magnetization       9.6000000
 augmentation part       54.0000000 magnetization       9.6000000

[...]

 Broyden mixing:
  rms(total) = 0.19206E+01    rms(broyden)= 0.19206E+01
  rms(prec ) = 0.20241E+01
  weight for this iteration     100.00

[...]

 eigenvalues of (default mixing * dielectric matrix)
  average eigenvalue GAMMA=   0.3328
  0.3328

[...]

 eigenvalue-minimisations  :  3822
 total energy-change (2. order) : 0.2249785E+01  (-0.3904760E+01)
 number of electron      53.9999996 magnetization       8.6091212
 augmentation part       -0.7793469 magnetization       6.6699859

[...]

 Broyden mixing:
  rms(total) = 0.84442E-05    rms(broyden)= 0.84442E-05
  rms(prec ) = 0.98807E-05
  weight for this iteration     100.00

 eigenvalues of (default mixing * dielectric matrix)
  average eigenvalue GAMMA=   1.9815
  8.8049  8.8049  5.2293  3.2489  2.4511  2.4511  1.9001  1.6295  1.6295  1.1589
  1.1589  0.9533  0.9533  0.4007  0.8322  0.8322  0.7961  0.4839  0.6882  0.6882
  0.6277  0.6277  0.6089  0.5960

[...]

--------------------------------------- Iteration      1(  30)  ---------------------------------------

 eigenvalue-minimisations  :  4368
 total energy-change (2. order) :-0.3250334E-06  (-0.2470147E-09)
 number of electron      53.9999996 magnetization       5.9999971
 augmentation part       -0.5208544 magnetization       4.1914712

 Free energy of the ion-electron system (eV)
  alpha Z        PSCENC =        23.01523305
  Ewald energy   TEWEN  =      7534.95570762
  -Hartree energ DENC   =    -10197.90119415
  -exchange      EXHF   =         0.00000000
  -V(xc)+E(xc)   XCENC  =        85.61412787
  PAW double counting   =      3567.21261153    -3529.74692912
  entropy T*S    EENTRO =        -0.00000000
  eigenvalues    EBANDS =      -534.04768475
  atomic energy  EATOM  =      3012.11119029
  Solvation  Ediel_sol  =         0.00000000
  free energy    TOTEN  =       -38.78693765 eV

  energy without entropy =      -38.78693765  energy(sigma->0) =      -38.78693765

 average (electrostatic) potential at core
  the test charge radii are     1.1394  0.9406
  (the norm of the test charge is              1.0000)
       1 -53.3919       2 -53.3917       3 -99.6609       4 -99.6634       5 -99.6611
       6 -99.6636       7 -99.6609       8 -99.6613

 E-fermi :  -4.6862     XC(G=0):  -2.5630     alpha+bet : -2.0165

 val. band max:       -4.9071273465   @ k =  -0.3750   0.3750   0.2500
 cond. band min:      -3.3966065222   @ k =  -0.3750  -0.3750   0.2500
 fundamental gap:      1.5105208242
 Fermi energy:        -4.6861999158

 spin component 1

 k-point     1 :       0.1250    0.1250    0.2500
  band No.  band energies     occupation
      1     -19.7147      1.00000
      2     -19.0521      1.00000
      3     -19.0309      1.00000
      4     -18.9696      1.00000
      5     -18.8609      1.00000
      6     -18.8576      1.00000
      7      -9.4974      1.00000
      8      -9.0854      1.00000
      9      -8.6833      1.00000
     10      -8.6434      1.00000
     11      -8.6163      1.00000
     12      -8.4359      1.00000
     13      -8.3019      1.00000
     14      -8.2843      1.00000
     15      -8.1127      1.00000
     16      -7.5782      1.00000
     17      -7.2791      1.00000
     18      -7.2416      1.00000
     19      -6.8913      1.00000
     20      -6.6683      1.00000
     21      -6.5379      1.00000
     22      -6.4606      1.00000
     23      -6.2465      1.00000
     24      -6.2099      1.00000
     25      -5.5419      1.00000
     26      -5.3351      1.00000
     27      -5.3117      1.00000
     28      -5.1438      1.00000
     29      -5.0375      1.00000
     30      -5.0080      1.00000
     31      -3.3590      0.00000
     32      -3.3351      0.00000
     33      -3.2693      0.00000
     34      -3.1500      0.00000
     35       1.2582      0.00000
     36       1.8142      0.00000
     37       2.3732      0.00000
     38       2.6923      0.00000
     39       2.7325      0.00000
     40       3.0805      0.00000
     41       3.3522      0.00000
     42       3.5586      0.00000

[...]

 k-point    16 :      -0.1250   -0.1250    0.2500
  band No.  band energies     occupation
      1     -19.7147      1.00000
      2     -19.0521      1.00000
      3     -19.0309      1.00000
      4     -18.9696      1.00000
      5     -18.8609      1.00000
      6     -18.8576      1.00000
      7      -9.4974      1.00000
      8      -9.0854      1.00000
      9      -8.6833      1.00000
     10      -8.6434      1.00000
     11      -8.6163      1.00000
     12      -8.4359      1.00000
     13      -8.3019      1.00000
     14      -8.2843      1.00000
     15      -8.1127      1.00000
     16      -7.5782      1.00000
     17      -7.2791      1.00000
     18      -7.2416      1.00000
     19      -6.8913      1.00000
     20      -6.6683      1.00000
     21      -6.5379      1.00000
     22      -6.4606      1.00000
     23      -6.2465      1.00000
     24      -6.2099      1.00000
     25      -5.5419      1.00000
     26      -5.3351      1.00000
     27      -5.3117      1.00000
     28      -5.1438      1.00000
     29      -5.0375      1.00000
     30      -5.0080      1.00000
     31      -3.3590      0.00000
     32      -3.3351      0.00000
     33      -3.2693      0.00000
     34      -3.1500      0.00000
     35       1.2583      0.00000
     36       1.8137      0.00000
     37       2.3731      0.00000
     38       2.6923      0.00000
     39       2.7465      0.00000
     40       3.0413      0.00000
     41       3.3854      0.00000
     42       3.5576      0.00000
 Fermi energy:        -4.6861999158

 spin component 2

[...]

 k-point    16 :      -0.1250   -0.1250    0.2500
  band No.  band energies     occupation
      1     -19.7242      1.00000
      2     -19.0946      1.00000
      3     -19.0693      1.00000
      4     -19.0124      1.00000
      5     -18.9001      1.00000
      6     -18.8979      1.00000
      7      -9.2753      1.00000
      8      -8.8331      1.00000
      9      -8.4850      1.00000
     10      -8.4776      1.00000
     11      -8.3385      1.00000
     12      -8.2213      1.00000
     13      -7.9335      1.00000
     14      -7.9208      1.00000
     15      -7.7635      1.00000
     16      -7.2656      1.00000
     17      -7.0639      1.00000
     18      -6.9917      1.00000
     19      -6.7579      1.00000
     20      -6.5822      1.00000
     21      -6.3354      1.00000
     22      -6.2715      1.00000
     23      -6.1541      1.00000
     24      -6.1069      1.00000
     25      -2.5867      0.00000
     26      -2.5192      0.00000
     27      -2.4151      0.00000
     28      -2.3223      0.00000
     29      -2.2542      0.00000
     30      -2.2246      0.00000
     31      -1.7982      0.00000
     32      -1.7593      0.00000
     33      -1.7399      0.00000
     34      -1.6874      0.00000
     35       1.4013      0.00000
     36       1.8397      0.00000
     37       2.4232      0.00000
     38       2.8652      0.00000
     39       3.3100      0.00000
     40       3.3284      0.00000
     41       3.5726      0.00000
     42       3.7411      0.00000

 soft charge-density along one line, spin component           1
         0         1         2         3         4         5         6         7         8         9
 total charge-density along one line

 soft charge-density along one line, spin component           2
         0         1         2         3         4         5         6         7         8         9
 total charge-density along one line

------------------------ aborting loop because EDIFF is reached ----------------------------------------

  FORCE on cell =-STRESS in cart. coord.  units (eV):
  Direction    XX          YY          ZZ          XY          YZ          ZX
  Alpha Z    23.01523    23.01523    23.01523
  Ewald    9190.38383  9190.64735-10846.07696     0.17652     4.01627     2.20260
  Hartree  9803.41008  9803.67703 -9409.18768     0.18844     3.71403     2.02432
  E(xc)    -208.53719  -208.53607  -208.79786     0.00082    -0.00006    -0.00011
  Local  -20015.46913-20016.00908 19230.81446    -0.37289    -7.71628    -4.21899
  n-local   475.11602   475.10585   474.30152    -0.00761     0.00536     0.00370
  augment   -58.60656   -58.60637   -58.79496     0.00027    -0.00039    -0.00007
  Kinetic   786.94818   786.97457   791.07004     0.01906    -0.01108    -0.00579
  Fock        0.00000     0.00000     0.00000     0.00000     0.00000     0.00000
  Total      -3.73953    -3.73147    -3.65621     0.00461     0.00784     0.00566
  in kB      -8.01008    -7.99281    -7.83161     0.00987     0.01679     0.01211

 VOLUME and BASIS-vectors are now :
  energy-cutoff  :      520.00
  volume of cell :      747.98
      direct lattice vectors                 reciprocal lattice vectors
     6.154088000 -0.002745000  0.000611000     0.162535521  0.093943719 -0.000034071
    -3.079421000  5.327821000  0.000675000     0.000083745  0.187742402 -0.000035214
     0.002310000  0.004279000 22.818631000    -0.000004355 -0.000008069  0.043823840

  length of vectors
     6.154088643  6.153739575 22.818631518     0.187731774  0.187742424  0.043823841

 FORCES acting on ions
    electron-ion (+dipol)            ewald-force                    non-local-force                 convergence-correction
   -.605E-01 0.588E-01 0.550E-02   0.603E-01 -.589E-01 -.467E-02   -.471E-02 0.221E-02 -.909E-03   0.376E-06 -.101E-06 -.587E-08
   0.571E-01 -.573E-01 0.110E-02   -.571E-01 0.575E-01 -.141E-02   0.465E-02 -.211E-02 0.116E-02   -.293E-06 0.927E-07 0.246E-07
   -.340E+02 0.588E+02 -.479E+03   0.350E+02 -.605E+02 0.482E+03   -.111E+01 0.194E+01 -.333E+01   0.432E-05 -.502E-05 0.240E-04
   -.340E+02 -.588E+02 -.478E+03   0.350E+02 0.605E+02 0.481E+03   -.113E+01 -.195E+01 -.332E+01   0.197E-05 0.597E-05 0.235E-04
   0.680E+02 -.353E-01 -.479E+03   -.699E+02 0.306E-01 0.482E+03   0.223E+01 0.772E-02 -.333E+01   -.628E-05 -.101E-05 0.242E-04
   0.340E+02 0.588E+02 0.478E+03   -.350E+02 -.605E+02 -.481E+03   0.113E+01 0.195E+01 0.332E+01   -.406E-05 -.467E-05 -.234E-04
   0.340E+02 -.588E+02 0.479E+03   -.350E+02 0.605E+02 -.482E+03   0.111E+01 -.194E+01 0.333E+01   -.216E-05 0.599E-05 -.241E-04
   -.680E+02 0.626E-01 0.479E+03   0.699E+02 -.578E-01 -.482E+03   -.223E+01 -.864E-02 0.333E+01   0.644E-05 -.132E-05 -.238E-04
   -.296E-03 0.175E-03 0.478E-03   0.000E+00 0.466E-14 0.171E-12   0.295E-03 -.174E-03 -.479E-03   0.316E-06 -.762E-07 0.324E-06

 POSITION                                       TOTAL-FORCE (eV/Angst)
      3.07803      1.77592     11.40997        -0.004896      0.002103     -0.000077
      6.15465     -0.00030     11.40985         0.004651     -0.001899      0.000847
      1.97595      0.13103     12.77669        -0.141484      0.252404     -0.440710
      5.05558      1.64867     12.77262        -0.146139     -0.253247     -0.428797
      2.20174      3.55090     12.77751         0.289428      0.003006     -0.441086
      4.17721      0.12689     10.04726         0.145149      0.253680      0.428524
      1.10251      1.64735     10.04255         0.142316     -0.252206      0.440661
      3.95144      3.55265     10.04306        -0.289026     -0.003841      0.440638
    total drift:                               -0.000000      0.000000     -0.000000

  FREE ENERGIE OF THE ION-ELECTRON SYSTEM (eV)
  free  energy   TOTEN  =       -38.78693765 eV

  energy  without entropy=      -38.78693765  energy(sigma->0) =      -38.78693765